time,damage_index,damage_index_a,damage_index_b,strain_xx,stress_xx
0,0,0,0,0,0
0.1,0.2,0,0.2,0.01,80000000
0.2,0.3025,0.1,0.225,0.01,69750000
0.3,0.4,0.2,0.25,0.01,60000000
0.4,0.4925,0.3,0.275,0.01,50750000
0.5,0.58,0.4,0.3,0.01,42000000
0.6,0.6625,0.5,0.325,0.01,33750000
0.7,0.74,0.6,0.35,0.01,26000000
0.8,0.8125,0.7,0.375,0.01,18750000
0.9,0.88,0.8,0.4,0.01,12000000
1,0.9425,0.9,0.425,0.01,5750000
1.1,1,1,0.45,0.01,1.1102230246252e-08
