time,local_damage,nonlocal_damage,strain_xx,stress_xx
0,0,0,0,0
0.2,0.15,0,0.01,100000000
0.4,0.3,0.15,0.01,84907803.982137
0.6,0.45,0.3,0.01,69550428.502183
0.8,0.6,0.45,0.01,53696043.074673
1,0.75,0.6,0.01,36667128.528816
