time,damage_index,strain_xx,stress_xx
0,0,0,0
0.1,0,0.01,100000000
0.2,0.1,0.01,100000000
0.3,0.2,0.01,90000000
0.4,0.3,0.01,80000000
0.5,0.4,0.01,70000000
0.6,0.5,0.01,60000000
0.7,0.6,0.01,50000000
0.8,0.7,0.01,40000000
0.9,0.8,0.01,30000000
1,0.9,0.01,20000000
1.1,1,0.01,10000000
