time,cell_dislocations,effective_strain_avg,temperature,vonmises_stress,wall_disloactions
0,0,0,0,0,0
2,5999999135424,1.591075222233e-11,900,633699.99977295,439999997857.22
4,5999994871021.9,9.4387977735163e-11,900,1267399.9996401,439999987288.22
6,5999989213542,1.9849767585783e-10,900,1901099.999945,439999973266.5
8,5999982849452.4,3.2527975843054e-10,900,2534799.9999184,439999959975
10,5999975611454.6,4.8117682533793e-10,900,3168499.9998479,439999947458.09
