time,eth_xx,eth_yy,eth_zz,fth_xx,fth_yy,fth_zz,stress_zz,temperature
10,0.13954152141108,0.074607463084183,0.10707327807298,1.1300401648541,1.0708721061703,1.1004550487501,-239.18300840382,4300
