time,fluid_mass,p0,stress_xx,stress_yy,stress_zz,zdisp
0,0.12214027581602,0.1,0,0,0,0
2,2.12214027892,1.4750422330192,0.11062816747644,0.11062816747644,0.44251266990577,0.11062816747644
4,4.1221402789201,1.7962852276898,0.13472139207674,0.13472139207674,0.53888556830695,0.13472139207674
6,6.1221402790938,1.9877665291535,0.14908248968651,0.14908248968651,0.59632995874604,0.14908248968651
8,8.1221402790946,2.1246598651822,0.15934948988867,0.15934948988867,0.63739795955467,0.15934948988867
10,10.122140279095,2.2312884429973,0.16734663322479,0.16734663322479,0.66938653289918,0.16734663322479
