time,fluid_mass,p0,rdisp,strain_rr,strain_tt,strain_zz,stress_rr,stress_tt,stress_zz,vol_strain
0,1.1511449796331,0.1,0,0,0,0,0,0,0,0
2,1.1511449796331,0.11351433619396,-0.02,-0.02,-0.0066666666666667,0,-0.086666666666667,-0.046666666666667,-0.026666666666667,-0.026666666666667
4,1.1511449796331,0.1274041182475,-0.04,-0.04,-0.013333333333333,0,-0.17333333333333,-0.093333333333333,-0.053333333333333,-0.053333333333333
6,1.1511449796331,0.14169080446953,-0.06,-0.06,-0.02,2.7608981609926e-18,-0.26,-0.14,-0.08,-0.08
8,1.1511449796331,0.15639774707268,-0.08,-0.08,-0.026666666666667,0,-0.34666666666667,-0.18666666666667,-0.10666666666667,-0.10666666666667
10,1.1511449796331,0.17155042182035,-0.1,-0.1,-0.033333333333333,3.6811975479902e-19,-0.43333333333333,-0.23333333333333,-0.13333333333333,-0.13333333333333
