time,fluid_mass,p0,rdisp,stress_rr,stress_tt,stress_zz
0,1.1511449796331,0.1,0,0,0,0
2,1.1511449796331,0.11010135365876,0,-0.02,-0.02,-0.08
4,1.1511449796331,0.12041099726013,0,-0.04,-0.04,-0.16
6,1.1511449796331,0.13093770185904,0,-0.06,-0.06,-0.24
8,1.1511449796331,0.14169080446953,0,-0.08,-0.08,-0.32
10,1.1511449796331,0.15268025782891,0,-0.1,-0.1,-0.4
