time,strain_xx,stress_xx,time_step_limit
0,0,0,0
0.1,0.01,100000000,0.2
0.3,0.01,100000000,0.2
0.5,0.01,100000000,0.2
0.7,0.01,100000000,0.2
0.9,0.01,100000000,0.2
1.1,0.01,100000000,0.2
