time,e_zz,fp_xx,fp_zz,pk2,slip_increment_0,slip_increment_3,slip_increment_9,slip_resistance_0,slip_resistance_3,slip_resistance_9,stress_zz,tau_3,tau_9,total_twin_volume_fraction,twin_resistance_0,twin_tau_0
0,0,0,0,0,0,0,0,0,0,0,0,0,0,0,0,0
0.5,0.0025031249999999,1,1,358.51963730313,0,1.2296427705072e-18,-1.2296427705072e-18,138.1167269026,287.1453933818,287.1453933818,359.90397468774,51.593002339839,-51.593002339839,7.3084010330618e-22,1140,126.5981124392
1,0.0050125,0.99999999999712,1.0000000000011,717.9344547244,0,1.3219527056153e-12,-1.3219527056151e-12,138.1167269026,287.14539358369,287.14539358369,723.48871216847,103.31482615867,-103.31482615867,7.8570538841412e-16,1140,253.51232503429
1.5,0.0075281250000001,0.99999999019349,1.0000000038925,1078.2438862341,0,4.5067147782386e-09,-4.5067147782384e-09,138.11672690612,287.1460818443,287.1460818443,1090.779155292,155.1653900016,-155.1653900016,2.6793587181617e-12,1140.000000001,380.74243791257
2,0.01005,0.99999687677555,1.0000012397233,1439.2684971042,0,1.431236658843e-06,-1.431236658843e-06,138.11672807778,287.36718243502,287.36718243502,1461.6160146338,207.11887219712,-207.11887219712,8.6645268997068e-10,1140.0000004258,508.22509025502
2.25,0.01131328125,0.99998166890745,1.0000072763407,1619.3221602883,0,1.3982399558443e-05,-1.3982399558442e-05,138.11673531712,288.49282821306,288.49282821306,1647.6188543578,233.02961208245,-233.02961208244,3.1476800901802e-09,1140.0000020718,571.80446367044
