time,e_zz,fp_xx,fp_zz,pk2,stress_zz,total_twin_volume_fraction,twin_increment_0,twin_increment_1,twin_increment_2,twin_increment_3,twin_increment_4,twin_increment_5,twin_resistance_0,twin_resistance_1,twin_resistance_2,twin_resistance_3,twin_resistance_4,twin_resistance_5,twin_tau_0,twin_tau_1,twin_tau_2,twin_tau_3,twin_tau_4,twin_tau_5,twin_volume_fraction_0,twin_volume_fraction_1,twin_volume_fraction_2,twin_volume_fraction_3,twin_volume_fraction_4,twin_volume_fraction_5
0,0,0,0,0,0,0,0,0,0,0,0,0,0,0,0,0,0,0,0,0,0,0,0,0,0,0,0,0,0,0
0.5,0.0050125,1,1,717.93445472442,723.48871217347,7.8570465757338e-16,4.3737559271596e-17,4.373755927157e-17,4.3737559271589e-17,4.3737559271582e-17,4.3737559271595e-17,4.3737559271577e-17,1140,1140,1140,1140,1140,1140,253.51232503428,253.51232503427,253.51232503428,253.51232503428,253.51232503428,253.51232503428,1.3095077626226e-16,1.3095077626219e-16,1.3095077626224e-16,1.3095077626222e-16,1.3095077626226e-16,1.3095077626221e-16
1,0.01005,0.99999999995712,1.0000000000511,1439.4496224603,1461.8027713903,8.6595075651338e-10,4.8204548375019e-11,4.8204548375019e-11,4.8204548375019e-11,4.8204548375019e-11,4.8204548375019e-11,4.8204548375019e-11,1140.0000004245,1140.0000004245,1140.0000004245,1140.0000004245,1140.0000004245,1140.0000004245,508.28904805762,508.28904805762,508.28904805762,508.28904805762,508.28904805762,508.28904805762,1.4432512608556e-10,1.4432512608556e-10,1.4432512608556e-10,1.4432512608556e-10,1.4432512608556e-10,1.4432512608556e-10
1.5,0.0151125,0.99999985013466,1.0000001784557,2164.5191930542,2215.1214102743,3.0262131548618e-06,1.6841099436186e-07,1.6841099436186e-07,1.6841099436186e-07,1.6841099436186e-07,1.6841099436185e-07,1.6841099436186e-07,1140.0022313228,1140.0022313228,1140.0022313228,1140.0022313228,1140.0022313228,1140.0022313228,764.3208786005,764.3208786005,764.3208786005,764.3208786005,764.3208786005,764.3208786005,5.0436885914363e-07,5.0436885914363e-07,5.0436885914363e-07,5.0436885914363e-07,5.0436885914361e-07,5.0436885914362e-07
2,0.0202,0.9999536902736,1.0000551499514,2885.0046369104,2975.0054437312,0.00093516987318971,5.1889330416449e-05,5.1889330402363e-05,5.1889330409705e-05,5.1889330405939e-05,5.1889330413752e-05,5.1889330403432e-05,1140.920525372,1140.9205253721,1140.920525372,1140.9205253721,1140.920525372,1140.9205253721,1018.7339922651,1018.7339922514,1018.7339922585,1018.7339922549,1018.7339922625,1018.7339922524,0.0001558616455551,0.00015586164551293,0.00015586164553491,0.00015586164552363,0.00015586164554702,0.00015586164551613
2.5,0.0253125,0.99894996564343,1.0012531138283,3437.2650432381,3565.1365623723,0.021224564523268,0.001129442968863,0.0011294429688489,0.0011294429688549,0.0011294429688513,0.0011294429688593,0.0011294429688487,1165.2952328638,1165.2952328639,1165.2952328639,1165.2952328639,1165.2952328638,1165.2952328639,1213.7445795173,1213.7445795167,1213.744579517,1213.7445795168,1213.7445795171,1213.7445795167,0.003537427420594,0.0035374274205097,0.0035374274205495,0.0035374274205276,0.0035374274205747,0.0035374274205123
