time,e_zz,fp_zz,gss,pk2,slip_increment,stress_zz,uy_avg_top,uz_avg_front
0,0,0,0,0,0,0,0,0
0.00625,0.0006251953125,1.0000000009323,60.800000164684,29.397371057824,-9.1259941504032e-08,29.434148986504,-0.000625,0.000625
0.0125,0.00125078125,1.0000009484459,60.80016752811,58.794811168674,-9.2744945604902e-05,58.94193654583,-0.00125,0.00125
0.015625,0.001563720703125,1.0000052471235,60.800926809723,73.329093428101,-0.00084152346720109,73.557961252969,-0.0015625,0.0015625
0.01875,0.0018767578125,1.0000288214966,60.805090513997,86.959771721937,-0.0046148756500881,87.281659969568,-0.001875,0.001875
0.021875,0.002189892578125,1.0001067451349,60.8188493752,98.017645116415,-0.015252985832752,98.426673425426,-0.0021875,0.0021875
