time,e_xx,e_yy,e_zz,fp_xx,fp_yy,fp_zz,pk2_zz,slip_increment_0,slip_increment_1,slip_resistance_0,slip_resistance_1,slip_resistance_2,stress_zz,tau_0,tau_1,tau_2
0,0,0,0,0,0,0,0,0,0,0,0,0,0,0,0,0
0.5,-0.00015435620410492,-0.00015531949332311,0.00050012500082267,1,1,1,61.173532706077,-1.2149498418627e-20,6.1518289657414e-18,142.96785600165,142.96785600165,142.96785600165,61.223078732059,-20.392084564877,27.840831574031,-7.4487470091542
1,-0.00030878952199858,-0.00031071668165478,0.0010005000032877,0.9999999999986,0.99999999999993,1.0000000000015,122.37764513606,-1.2803371849122e-14,6.4829248410987e-12,142.96785600396,142.96785605008,142.96785600387,122.57595918844,-40.794341559203,55.695556649406,-14.901215090203
1.5,-0.00046330315818028,-0.00046619023444556,0.0015011250073977,0.99999999530832,0.99999999975094,1.0000000049407,183.61173139497,-4.278401641134e-11,2.166351982712e-08,142.9678637249,142.9680178748,142.96786341986,184.05822772592,-61.206534264488,83.563853191268,-22.35731892678
2,-0.00061887991662165,-0.00062133126498389,0.0020020000160413,0.99999854542799,0.99999992276929,1.0000015318027,244.6895852101,-1.3313920556685e-08,6.6967290750901e-06,142.97028988489,143.01782371262,142.97019468383,245.48266409646,-81.555941643682,111.34677241404,-29.790830770357
2.5,-0.00081249762263437,-0.00076073168978993,0.0025031254907636,0.99994138073794,0.99999686684793,1.0000617524141,298.58633189657,-6.4944283011897e-07,0.00026403313023985,143.13420869335,144.6754072233,143.12948699488,299.76764663618,-99.134112762435,135.34132650743,-36.207213744997
