time,e_zz,fp_zz,pk2,stress_zz,tau_0,tau_1,tau_2,tau_3,tau_4
0,0,0,0,0,0,0,0,0,0
0.05,0.0050125188921215,1,599.51419968085,604.41563165779,138.24463348122,-14.030616779397,-107.63579026683,-102.0392852808,255.96765664206
0.1,0.010050075294519,1,1202.0322947715,1221.7690650536,277.21549903033,-28.201240992762,-215.82754227196,-204.57868541485,513.24667634766
0.15,0.015112668789431,1,1807.5543444023,1852.2597511221,416.91278893587,-42.512376497521,-324.57546166764,-307.61820387567,771.83730876314
0.2,0.020200298950151,1.0000000000001,2416.0804062358,2496.0909848953,557.33669221004,-56.964521970608,-433.87975300851,-411.15784488209,1031.7398008914
0.25,0.025312965341198,1.0000000000066,3027.6105364538,3153.4700009779,698.48739460026,-71.558170917146,-543.74061975241,-515.19761339734,1292.9543971006
0.3,0.03045066751847,1.0000000002681,3642.1447880894,3824.6080683879,840.36507833054,-86.293811690172,-654.15826377514,-619.73751465158,1555.4813383094
0.35,0.035613405027144,1.0000000062704,4259.6824666148,4509.7197659397,982.96972333541,-101.17180263443,-765.13266826958,-724.77738720657,1819.3204622775
0.4,0.040801177366549,1.0000000974511,4880.2131785103,5209.0128757859,1126.2988617329,-116.19095603314,-876.66078102419,-830.31465679726,2084.4662931238
