<?xml version="1.0"?>
<VTKFile type="UnstructuredGrid" version="2.2" byte_order="LittleEndian" header_type="UInt32" compressor="vtkZLibDataCompressor">
  <UnstructuredGrid>
    <Piece NumberOfPoints="1759" NumberOfCells="132">
      <PointData RationalWeights="RationalWeights">
        <DataArray type="Float64" Name="RationalWeights" format="ascii" RangeMin="1" RangeMax="1">
          1 1 1 1 1 1
          1 1 1 1 1 1
          1 1 1 1 1 1
          1 1 1 1 1 1
          1 1 1 1 1 1
          1 1 1 1 1 1
          1 1 1 1 1 1
          1 1 1 1 1 1
          1 1 1 1 1 1
          1 1 1 1 1 1
          1 1 1 1 1 1
          1 1 1 1 1 1
          1 1 1 1 1 1
          1 1 1 1 1 1
          1 1 1 1 1 1
          1 1 1 1 1 1
          1 1 1 1 1 1
          1 1 1 1 1 1
          1 1 1 1 1 1
          1 1 1 1 1 1
          1 1 1 1 1 1
          1 1 1 1 1 1
          1 1 1 1 1 1
          1 1 1 1 1 1
          1 1 1 1 1 1
          1 1 1 1 1 1
          1 1 1 1 1 1
          1 1 1 1 1 1
          1 1 1 1 1 1
          1 1 1 1 1 1
          1 1 1 1 1 1
          1 1 1 1 1 1
          1 1 1 1 1 1
          1 1 1 1 1 1
          1 1 1 1 1 1
          1 1 1 1 1 1
          1 1 1 1 1 1
          1 1 1 1 1 1
          1 1 1 1 1 1
          1 1 1 1 1 1
          1 1 1 1 1 1
          1 1 1 1 1 1
          1 1 1 1 1 1
          1 1 1 1 1 1
          1 1 1 1 1 1
          1 1 1 1 1 1
          1 1 1 1 1 1
          1 1 1 1 1 1
          1 1 1 1 1 1
          1 1 1 1 1 1
          1 1 1 1 1 1
          1 1 1 1 1 1
          1 1 1 1 1 1
          1 1 1 1 1 1
          1 1 1 1 1 1
          1 1 1 1 1 1
          1 1 1 1 1 1
          1 1 1 1 1 1
          1 1 1 1 1 1
          1 1 1 1 1 1
          1 1 1 1 1 1
          1 1 1 1 1 1
          1 1 1 1 1 1
          1 1 1 1 1 1
          1 1 1 1 1 1
          1 1 1 1 1 1
          1 1 1 1 1 1
          1 1 1 1 1 1
          1 1 1 1 1 1
          1 1 1 1 1 1
          1 1 1 1 1 1
          1 1 1 1 1 1
          1 1 1 1 1 1
          1 1 1 1 1 1
          1 1 1 1 1 1
          1 1 1 1 1 1
          1 1 1 1 1 1
          1 1 1 1 1 1
          1 1 1 1 1 1
          1 1 1 1 1 1
          1 1 1 1 1 1
          1 1 1 1 1 1
          1 1 1 1 1 1
          1 1 1 1 1 1
          1 1 1 1 1 1
          1 1 1 1 1 1
          1 1 1 1 1 1
          1 1 1 1 1 1
          1 1 1 1 1 1
          1 1 1 1 1 1
          1 1 1 1 1 1
          1 1 1 1 1 1
          1 1 1 1 1 1
          1 1 1 1 1 1
          1 1 1 1 1 1
          1 1 1 1 1 1
          1 1 1 1 1 1
          1 1 1 1 1 1
          1 1 1 1 1 1
          1 1 1 1 1 1
          1 1 1 1 1 1
          1 1 1 1 1 1
          1 1 1 1 1 1
          1 1 1 1 1 1
          1 1 1 1 1 1
          1 1 1 1 1 1
          1 1 1 1 1 1
          1 1 1 1 1 1
          1 1 1 1 1 1
          1 1 1 1 1 1
          1 1 1 1 1 1
          1 1 1 1 1 1
          1 1 1 1 1 1
          1 1 1 1 1 1
          1 1 1 1 1 1
          1 1 1 1 1 1
          1 1 1 1 1 1
          1 1 1 1 1 1
          1 1 1 1 1 1
          1 1 1 1 1 1
          1 1 1 1 1 1
          1 1 1 1 1 1
          1 1 1 1 1 1
          1 1 1 1 1 1
          1 1 1 1 1 1
          1 1 1 1 1 1
          1 1 1 1 1 1
          1 1 1 1 1 1
          1 1 1 1 1 1
          1 1 1 1 1 1
          1 1 1 1 1 1
          1 1 1 1 1 1
          1 1 1 1 1 1
          1 1 1 1 1 1
          1 1 1 1 1 1
          1 1 1 1 1 1
          1 1 1 1 1 1
          1 1 1 1 1 1
          1 1 1 1 1 1
          1 1 1 1 1 1
          1 1 1 1 1 1
          1 1 1 1 1 1
          1 1 1 1 1 1
          1 1 1 1 1 1
          1 1 1 1 1 1
          1 1 1 1 1 1
          1 1 1 1 1 1
          1 1 1 1 1 1
          1 1 1 1 1 1
          1 1 1 1 1 1
          1 1 1 1 1 1
          1 1 1 1 1 1
          1 1 1 1 1 1
          1 1 1 1 1 1
          1 1 1 1 1 1
          1 1 1 1 1 1
          1 1 1 1 1 1
          1 1 1 1 1 1
          1 1 1 1 1 1
          1 1 1 1 1 1
          1 1 1 1 1 1
          1 1 1 1 1 1
          1 1 1 1 1 1
          1 1 1 1 1 1
          1 1 1 1 1 1
          1 1 1 1 1 1
          1 1 1 1 1 1
          1 1 1 1 1 1
          1 1 1 1 1 1
          1 1 1 1 1 1
          1 1 1 1 1 1
          1 1 1 1 1 1
          1 1 1 1 1 1
          1 1 1 1 1 1
          1 1 1 1 1 1
          1 1 1 1 1 1
          1 1 1 1 1 1
          1 1 1 1 1 1
          1 1 1 1 1 1
          1 1 1 1 1 1
          1 1 1 1 1 1
          1 1 1 1 1 1
          1 1 1 1 1 1
          1 1 1 1 1 1
          1 1 1 1 1 1
          1 1 1 1 1 1
          1 1 1 1 1 1
          1 1 1 1 1 1
          1 1 1 1 1 1
          1 1 1 1 1 1
          1 1 1 1 1 1
          1 1 1 1 1 1
          1 1 1 1 1 1
          1 1 1 1 1 1
          1 1 1 1 1 1
          1 1 1 1 1 1
          1 1 1 1 1 1
          1 1 1 1 1 1
          1 1 1 1 1 1
          1 1 1 1 1 1
          1 1 1 1 1 1
          1 1 1 1 1 1
          1 1 1 1 1 1
          1 1 1 1 1 1
          1 1 1 1 1 1
          1 1 1 1 1 1
          1 1 1 1 1 1
          1 1 1 1 1 1
          1 1 1 1 1 1
          1 1 1 1 1 1
          1 1 1 1 1 1
          1 1 1 1 1 1
          1 1 1 1 1 1
          1 1 1 1 1 1
          1 1 1 1 1 1
          1 1 1 1 1 1
          1 1 1 1 1 1
          1 1 1 1 1 1
          1 1 1 1 1 1
          1 1 1 1 1 1
          1 1 1 1 1 1
          1 1 1 1 1 1
          1 1 1 1 1 1
          1 1 1 1 1 1
          1 1 1 1 1 1
          1 1 1 1 1 1
          1 1 1 1 1 1
          1 1 1 1 1 1
          1 1 1 1 1 1
          1 1 1 1 1 1
          1 1 1 1 1 1
          1 1 1 1 1 1
          1 1 1 1 1 1
          1 1 1 1 1 1
          1 1 1 1 1 1
          1 1 1 1 1 1
          1 1 1 1 1 1
          1 1 1 1 1 1
          1 1 1 1 1 1
          1 1 1 1 1 1
          1 1 1 1 1 1
          1 1 1 1 1 1
          1 1 1 1 1 1
          1 1 1 1 1 1
          1 1 1 1 1 1
          1 1 1 1 1 1
          1 1 1 1 1 1
          1 1 1 1 1 1
          1 1 1 1 1 1
          1 1 1 1 1 1
          1 1 1 1 1 1
          1 1 1 1 1 1
          1 1 1 1 1 1
          1 1 1 1 1 1
          1 1 1 1 1 1
          1 1 1 1 1 1
          1 1 1 1 1 1
          1 1 1 1 1 1
          1 1 1 1 1 1
          1 1 1 1 1 1
          1 1 1 1 1 1
          1 1 1 1 1 1
          1 1 1 1 1 1
          1 1 1 1 1 1
          1 1 1 1 1 1
          1 1 1 1 1 1
          1 1 1 1 1 1
          1 1 1 1 1 1
          1 1 1 1 1 1
          1 1 1 1 1 1
          1 1 1 1 1 1
          1 1 1 1 1 1
          1 1 1 1 1 1
          1 1 1 1 1 1
          1 1 1 1 1 1
          1 1 1 1 1 1
          1 1 1 1 1 1
          1 1 1 1 1 1
          1 1 1 1 1 1
          1 1 1 1 1 1
          1 1 1 1 1 1
          1 1 1 1 1 1
          1 1 1 1 1 1
          1 1 1 1 1 1
          1 1 1 1 1 1
          1 1 1 1 1 1
          1 1 1 1 1 1
          1 1 1 1 1 1
          1 1 1 1 1 1
          1 1 1 1 1 1
          1 1 1 1 1 1
          1 1 1 1 1 1
          1 1 1 1 1 1
          1
        </DataArray>
        <DataArray type="Float64" Name="von_mises" format="ascii" RangeMin="-5534.891795464777" RangeMax="152708.76861713384">
          20401.811016332224 110354.6418020479 110354.64180208366 20401.81101634625 14892.817421300433 103944.93427210531
          103944.93427213874 14892.817421289978 71241.79018963079 107806.0548391378 71241.7901896594 19650.793477607873
          18120.200950629984 101034.48482237516 101034.48482241119 18120.20095063047 58320.42118882749 102116.55795350473
          58320.421188844804 14137.070617798257 68693.20322671712 61317.08100293067 98712.65650825163 61317.081002953746
          16031.25737939666 56492.04487021886 58995.25268880066 21662.0806805606 124064.64587129423 124064.64587132438
          21662.080680591036 79278.79672633656 121183.39686030385 79278.79672636907 20334.565608861067 21969.28941944953
          111497.57209186579 111497.57209189679 21969.289419469973 76397.54771534738 69434.86293797469 108722.22648016686
          69434.86293800434 19195.621805785646 66659.51732627509 20771.321454417106 135463.58071221254 135463.58071223623
          20771.321454454624 85469.48706552669 132407.85508782638 85469.48706555876 19290.353467356366 21865.90786640525
          123203.51778166644 123203.51778169307 21865.90786644035 82413.76144114468 75659.70047619486 120216.36537138329
          75659.70047622755 18737.558925470425 72672.54806591474 19588.74135223004 144284.46605439432 144284.46605441108
          19588.741352265806 90618.15063925798 141112.7335913119 90618.15063928447 18177.59803270656 20908.974452469356
          132652.0528534427 132652.05285346188 20908.974452505332 87446.41817618045 80813.47488556297 129527.75401495268
          80813.47488559286 17622.34312395226 77689.1760470783 18719.22217463191 149992.85366969946 149992.85366970993
          18719.222174655406 93485.07285952166 146748.36604928484 93485.07285953793 17071.601931600886 19971.723566533183
          139564.95807134535 139564.95807135716 19971.723566562603 90240.58523910996 84562.61740163008 136345.7919836693
          84562.61740165057 16576.800999946143 81343.45131395837 18770.17396870845 152708.76861712977 152708.76861713384
          18770.173968714458 95797.2627725801 149432.2885594921 95797.26277258401 17374.61787415226 19233.50344260995
          144040.94726668985 144040.94726669753 19233.50344262474 92520.78271494235 87321.44111131135 140771.13811353594
          87321.44111132188 15871.71762148182 84051.63195815888 5675.087326649449 4516.676041306879 4516.676041307564
          5675.087326651145 13936.948851614648 9411.68828881797 9411.688288815429 13936.948851608022 4590.1981365594465
          4606.272383496951 4590.198136560525 5739.8456773126745 8479.909429123894 6618.636214023791 6618.636214024096
          8479.909429122219 9671.886676329625 9903.501529640831 9671.886676325208 13318.134169686426 4526.202724297611
          6731.095852720275 6657.068387561114 6731.09585271906 8736.710837146604 9482.70410528895 6675.030988760459
          3104.550281247318 2341.7049148012106 2341.704914798145 3104.550281244103 2559.7336847141787 2320.7635620361616
          2559.7336847114766 3077.4405301844245 4143.11539362349 3360.2427355835684 3360.242735580913 4143.115393621915
          2519.103074471915 3462.780022876714 3262.991532195564 3462.78002287465 4126.537395190255 3401.6130914714963
          1161.9860662111112 2020.4461182739703 2020.44611827904 1161.9860662162152 1652.9599354920313 1967.6219211165553
          1652.9599354954883 1156.0490808464074 1890.6660486588262 1991.8212640104553 1991.821264016623 1890.666048663343
          1627.154518537124 1960.0570449505135 1967.0152996828024 1960.0570449562088 1871.201489202911 1947.7493947817575
          7126.640322961502 5586.87307798383 9888.244554102741 11034.920765837536 5449.072466120461 4802.80827684528
          5909.211124698584 7748.167387626789 7619.37872461083 9511.400094253084 9277.17882516287 10966.090158446665
          4847.464895765996 7060.102196519606 6782.39813983352 7217.652771642743 8986.015589057366 6606.23821388422
          3610.9475811110015 2524.841942514773 2799.4064235148444 2381.244052594775 3277.034742944868 4611.151059445434
          3711.089775553566 2637.38530679052 3813.9470720130844 3493.348876566512 4234.86010892127 3578.0040324522724
          1211.3484069669098 2035.5774281241002 1678.3610912102718 2020.3667475833315 1151.659718571122 2083.751965113166
          2097.0537321512907 1644.5060976346078 2090.0798250030707 2022.7833560505228 1958.9652759136206 1997.1651358674078
          2035.5774281287481 1211.3484069672031 2524.8419425192237 3610.9475811080497 1678.3610912057463 1151.659718570551
          2020.3667475855975 2097.0537321624124 2083.751965115939 2799.4064235166124 3277.0347429385956 2381.2440525928355
          1644.5060976298462 2090.079825007299 1958.9652759138871 2022.7833560566542 2637.3853067863656 1997.1651358687914
          5586.873077979531 7126.640322960757 3711.0897755536694 4611.151059445707 5449.072466115358 5909.211124700263
          4802.808276842055 3813.9470720135005 4234.860108919635 3493.3488765648094 4847.4648957624395 3578.004032449674
          11034.92076583006 9888.244554090263 7619.378724609611 7748.167387620231 9511.400094242952 10966.090158436184
          9277.178825155737 7060.102196513031 7217.652771639685 6782.398139831013 8986.015589048777 6606.238213878513
          6844.135969198895 6844.135969196488 18073.93684982658 18073.93684982775 4873.755060070078 4873.755060068657
          6752.287844863945 10990.929452593105 10990.929452590703 13453.430323273467 13453.430323272127 18602.520335362588
          4969.230989955009 7753.486581749601 7753.4865817477785 11585.94046355973 12916.596129360576 8337.175086177713
          1222.775318750759 1222.7753187509165 1764.65232530585 1764.6523253024404 1187.8082152259778 3197.7799624398795
          3197.779962439752 1741.0851678132885 2976.376277175345 2976.3762771723996 3329.2433841684738 3019.6667951886284
          35.86443701607937 35.864437015576044 395.343074940711 395.34307494379834 -7.959643927504089 287.33691523167187
          287.33691523253236 367.0243145553774 928.349759905982 928.3497599074753 285.0139728967266 907.7653443624864
          4918.090061576451 -25.159216486836613 5070.661233316061 5212.658139709698 1890.003375972245 1509.8323774311077
          5819.094497554176 4210.091243904958 2688.5457732426403 4924.384286073322 5341.754710684268 3710.5953025558624
          1316.8754757407112 2179.129267247642 1161.2708739210573 2451.0484594059485 1857.6362999360072 2913.7071864579484
          2548.5012470938805 2713.215219845035 -5.673042825892026 405.9642279073861 -4.887159640673531 346.5709088752549
          372.9181344094875 1073.5091801250119 276.2204860129569 969.3267805795967 -5.673042829948912 1316.8754757448203
          405.9642279108149 -4.887159646741537 346.570908876955 2179.129267244316 1161.2708739238715 372.91813441009094
          1073.509180128282 276.22048601197156 1857.6362999314388 969.3267805793671 4918.09006157422 2451.048459410677
          5070.661233314798 5212.658139708504 2913.7071864561326 2548.5012470971765 4210.0912439056265 2713.215219842707
          -25.15921648032713 1890.0033759696717 1509.8323774332537 5819.094497559459 2688.545773240135 4924.384286072988
          5341.754710686056 3710.595302556467 16503.444065799045 6984.423297833457 6984.423297831628 16503.44406577667
          23384.415897136234 8800.226612189073 8800.226612184928 23384.415897110055 10049.004531675926 7055.648724017807
          10049.004531669347 16051.278663400226 17141.826702225615 6473.549421596574 6473.549421594425 17141.826702200113
          14294.29380943649 8683.132156031206 14294.293809423898 24211.57220877379 10585.629019852933 10097.053186863757
          6629.067205468858 10097.053186854246 16562.13007245288 15125.623445154331 10870.10144029862 4589.292129356471
          4589.292129354625 1190.2873723569237 1190.2873723566584 5139.523552201928 4588.511488731153 5139.523552199604
          2541.827366173923 2541.827366172906 3869.6781069360513 1182.809586869809 3869.678106934698 5181.767451417293
          4065.8115742988075 2526.9299041332965 4065.8115742969703 4073.915723810236 4159.654673643101 2080.881449417824
          2080.881449417271 157.7924256950306 157.79242569482733 2991.770157588424 2077.962733806141 2991.7701575873907
          633.7720002187032 633.7720002183255 292.0351336011861 98.20992385542866 292.0351336010266 2961.6039204320714
          1365.1735290605473 613.7782564441579 1365.1735290599295 290.58002962888895 1341.0015732188288 12484.439971288606
          8125.538081251797 16.515621129569354 6104.219031334998 8969.91727167226 6948.819113891971 13214.01243422387
          1845.026378195134 6441.457425102858 2282.1644765950864 6609.846614875365 7589.628876038541 8258.22378820893
          3400.599305461882 5478.821096448088 6789.442598526209 6332.748641925444 4822.486436214342 5032.579218459313
          1341.3967760984635 5403.686529819122 4715.407859133977 3012.316213660016 2920.740728183551 1107.0964244930215
          5092.310235661827 3842.93029270067 2622.0359784589173 3031.059422421276 3645.4181971260177 1956.8815598420892
          97.90145091548783 3025.351812922191 1986.677448003682 542.5502221317134 376.8536013659798 94.70029096998007
          2989.980689401259 1480.9668034523722 535.22008480727 272.234021214555 1372.2182459220116 1956.881559840312
          5032.579218454073 97.90145091573729 1341.3967760966952 3025.351812918828 4715.407859130466 1986.6774480026959
          542.5502221311996 3012.3162136565616 376.8536013655191 1107.09642449236 94.70029096990928 2989.9806893992163
          1480.96680345058 2622.0359784569337 535.2200848069048 272.2340212143656 1372.2182459209598 8125.538081243047
          6104.219031326008 5403.686529813388 6948.81911388783 6441.45742509378 2920.7407281795813 6609.846614869113
          5092.310235658055 3842.9302926957816 5478.821096443551 3031.0594224190145 3645.418197123096 12484.4399712729
          16.5156211312501 8969.917271664595 13214.012434206617 1845.0263781925373 2282.164476592577 7589.6288760281295
          8258.223788202653 3400.599305457329 6789.442598514867 6332.748641918592 4822.486436208794 3214.3728306769854
          3214.3728306750468 5662.006053926629 5662.006053925117 3831.742547252463 3241.6311313838273 3831.742547250594
          3580.84044006399 3580.8404400623704 4099.495265165018 5634.730316736485 4099.495265163987 3825.8338246787553
          3305.520991515533 3607.779827888304 3305.5209915142286 4055.4136164813904 3294.54129479529 1796.0665163965473
          1796.0665163936876 4078.650163030182 2269.7067813612475 4078.6501630273924 2868.041793461519 2868.041793459079
          4161.150555993212 3863.9807170527583 2918.8878975970442 3863.980717050499 3897.819331562543 12128.60768813601
          12128.607688149072 10353.286092970853 12376.51954086966 10353.286092968377 2089.320519814043 2089.320519813522
          10355.678742188902 5261.609165487558 2336.159213381358 5261.609165484599 5583.413303233521 3537.7878900768874
          5982.754893051317 4071.7188220388125 3333.099482328745 3905.205360492245 4214.873643180463 5831.629411475038
          3925.333318237782 3445.6286238856164 3725.164275756833 4174.836347905606 3376.6757254516265 1840.741552151822
          3937.6708241452857 1341.4096116406888 2965.456531991436 3726.7360069548486 3967.3677020229393 2837.0115858782738
          3844.440377502578 16622.504787261314 12055.079325005723 13521.38081818794 3708.6743416002855 10472.76689123219
          5663.444292996946 2349.54402840188 4875.5906048471315 16622.50478728028 1840.7415521435842 12055.079325007664
          13521.38081820863 3708.674341602688 3937.67082413779 1341.409611635027 10472.766891235182 5663.444292995112
          2349.5440284033007 3726.736006950077 4875.590604845021 3537.7878900716837 2965.4565319844137 4071.7188220336657
          3333.099482325327 3967.367702016845 2837.011585873769 3925.333318234341 3844.4403774985926 5982.754893048587
          3905.2053604888474 4214.873643177963 5831.629411472773 3445.628623882119 3725.164275754368 4174.83634790382
          3376.6757254493114 100164.50017342388 100164.50017345417 77553.78236980201 77553.78236982487 41098.011143720505
          101155.67904037089 41098.01114374509 92360.17305297389 92360.17305300228 35682.61595704576 78491.37166597508
          35682.61595707113 39719.94893796013 40346.56755376178 93218.65913447876 40346.56755378829 34860.791335645255
          39089.84067986505 114515.90325886615 114515.90325889616 46091.77595231898 115598.68618550495 46091.775952340286
          111550.02319691425 111550.0231969457 44731.858311836666 46925.96548497092 112649.73791277457 46925.96548499742
          45696.89200270747 126872.10672051081 126872.1067205386 51136.58051578378 127998.24691704477 51136.580515800924
          125060.40366908876 125060.40366911967 49798.80106570963 52804.638089336986 126422.02486100285 52804.6380893576
          51716.99843985965 135842.58034113253 135842.58034115468 54632.40720592882 136936.90438156348 54632.40720594138
          136199.87898568477 136199.87898571207 53292.37574370616 57615.738793953045 137648.41898683386 57615.738793970566
          56626.777187781074 144062.67692689883 144062.6769269132 58272.83894792658 145053.3270602782 58272.83894793579
          144718.27831735543 144718.27831737557 56932.62001803024 61385.10961385636 146181.77876535748 61385.10961386947
          60464.36525197199 145107.96850279297 145107.96850279928 58392.498706124155 146109.7989171912 58392.49870612974
          149417.55708020454 149417.55708021607 57132.174098423944 62938.9891514958 150759.08248118765 62938.989151504225
          62019.4793107295 94503.06156520435 -764.1294929236903 77380.86176297186 2004.2587491881568 94655.08490663921
          30081.249166969814 7112.4582897467335 89484.12131178426 2814.8167427411217 75313.49051143404 30600.93694289563
          6605.059822550981 34095.554729022464 88508.02951982795 32013.790079731232 9410.663639029517 31867.651853808133
          34823.66763189728 106325.61120191209 -1085.9472008844127 107398.26868954845 32637.03452072824 7693.860228505524
          104691.2732916414 3227.8634571706098 37563.26697924139 105189.45244974276 34518.813583596435 11603.232809498386
          38955.587838811 116879.34093717764 -2700.5742524365432 118689.72602323591 36351.994144166136 6365.551068508155
          115796.2374885649 2158.68897079559 41790.24934766763 117166.65426443402 38452.62306091863 11066.215435945454
          43591.59468142813 124793.08040161093 -4155.5069937727285 127064.92079306958 39297.449457620576 4836.14670912016
          125325.45766755579 983.315393035386 44929.19650479635 127373.39862980168 42204.44830264839 10005.627135773368
          47739.57465514033 131553.99740042447 -5139.211274335294 134533.81170137896 41899.450023969235 4036.181487376518
          132628.92626213052 -13.960679953012459 47977.0535553024 135195.3566458164 45214.7465261389 9017.725546109283
          51013.80483101302 132931.1608948108 -4634.086364114768 135697.70232811972 42605.888484888404 4004.412704547676
          136583.63375948553 -656.934146307316 48308.40873587408 139517.92734809578 46440.19999338823 8203.260521441207
          52337.44412156764 -4634.086364091461 132931.1608947925 -5139.211274287647 131553.99740038917 42605.888484878866
          135697.70232810656 4004.412704562904 -656.9341462715502 136583.6337594577 41899.45002394717 134533.81170135568
          4036.1814874153883 48308.40873586308 46440.19999337138 139517.92734807628 8203.260521467517 47977.05355528195
          52337.444121550194 -4155.506993702265 124793.08040155657 -13.960679896295915 132628.92626208602 39297.449457590104
          127064.92079303457 4836.146709178857 45214.74652610939 135195.3566457859 9017.725546156049 44929.19650476967
          51013.80483098549 -2700.574252359081 116879.34093710914 983.3153931079123 125325.45766748942 36351.99414412812
          118689.72602318911 6365.551068567849 42204.44830261004 127373.39862975666 10005.62713582892 41790.24934763157
          47739.574655104174 -1085.9472008080916 106325.61120183533 2158.688970868266 115796.23748848976 32637.0345206872
          107398.26868949497 7693.8602285604775 38452.623060873804 117166.65426438014 11066.215435998813 37563.26697920131
          43591.59468138427 -764.1294928705113 94503.06156512146 3227.863457234256 104691.27329155535 30081.249166925798
          94655.08490658281 7112.458289782095 34518.81358354718 105189.4524496845 11603.232809541081 34095.55472898277
          38955.58783876517 2004.2587491735521 77380.86176290584 2814.816742763379 89484.12131170256 30600.936942843742
          75313.4905113914 6605.059822536488 32013.790079681232 88508.02951977328 9410.663639038952 31867.651853767988
          34823.66763185437 47929.517938006415 16286.833933488751 16286.833933448826 47929.51793797891 27717.980195206415
          15846.121105583607 27717.980195166158 45456.22082905487 38901.51981306265 16745.701362434036 16745.70136240096
          38901.51981302582 25244.6830862485 24416.842858501313 15397.474427718582 24416.842858462576 35413.7900366145
          20929.11308205221 61755.78918345635 15367.558071596874 15367.558071550671 61755.78918344454 32186.479804109793
          15441.967938128413 32186.4798040712 60376.08675807417 54178.67940712441 15402.461393400406 15402.461393354917
          54178.679407108895 30806.777378714225 28891.013933578244 15367.174551104843 28891.013933539136 52719.81496567081
          27432.149492112854 76104.66863324623 14688.662964342351 14688.662964297628 76104.66863324012 38154.88151375097
          14704.027102114502 38154.881513714194 74822.05699700903 68612.67127317796 14786.005832197048 14786.005832151064
          68612.67127317033 36872.26987749844 34747.20123285877 14796.240028012633 34747.20123282117 67312.13086386744
          33446.66082353326 90952.21010894582 14226.589811162901 14226.589811121388 90952.21010894093 44442.2602035524
          13934.893829425555 44442.26020351614 89703.28505605544 83102.22884315657 14189.889887521247 14189.889887478095
          83102.2288431515 43193.33515064634 40955.36498154651 13999.001519762478 40955.36498151009 81837.54597999246
          39690.68211836673 105946.858891095 13939.776189817783 13939.776189778631 105946.85889108988 51557.63089044986
          12624.466468202918 51557.6308904148 104657.53240464974 98365.20627005813 13669.859353702588 13669.859353662745
          98365.20627005385 50268.30440398964 47319.43923975689 13083.863011791904 47319.439239721236 97132.03902744169
          46086.27199712476 113176.38261039238 14278.932684942736 14278.932684896701 113176.38261038694 62952.68702490283
          13510.834897628885 62952.68702487297 111280.96386838306 109868.124593655 12766.780655811926 12766.78065577012
          109868.12459365043 61057.2682828813 55287.350862765845 11835.916850735855 55287.35086273274 108522.63886338164
          53941.86513247822 16029.47977825666 38265.41817972735 38265.418179732966 16029.479778246177 23325.405227910862
          36071.55027943583 23325.40522791112 15888.741948426707 15337.000467500538 30595.675866817535 30595.67586682006
          15337.00046748975 21131.537327616665 19869.337359042707 27679.407445108427 19869.337359040954 14231.294997240147
          16953.06893733146 15840.376142238472 51900.42850426777 51900.42850427654 15840.376142224552 28349.627075029915
          50499.23464181399 28349.627075027995 15995.103477922052 15855.325363130018 44515.865818739934 44515.865818746395
          15855.325363119775 26948.433212570795 24959.88873812076 43044.398439864875 24959.888738120775 15826.701858074173
          23488.42135924248 15086.517514359379 66310.693665645 66310.69366566307 15086.517514341462 34290.42910856854
          65004.578119468875 34290.42910857065 15230.817429189787 15220.022754343701 58763.44377329793 58763.44377331385
          15220.02275432708 32984.31356238443 30899.385697756174 57432.52342726786 30899.385697757178 15310.89349440241
          29568.46535171865 14494.369597427445 81188.12789768085 81188.1278977081 14494.36959740731 40480.926663600025
          79925.19664050755 40480.9266636065 14393.229851846882 14510.913504221608 73326.83314053967 73326.83314056142
          14510.913504204917 39217.99540641633 37016.98708577134 72045.52239421825 37016.987085776054 14483.573636981819
          35735.67633944141 14172.24338877449 96152.51292227342 96152.51292230474 14172.2433887519 47461.741319736044
          94862.77487672179 47461.74131974549 13109.03839925339 13899.491869057414 88560.17589505806 88560.17589508963
          13899.491869033385 46172.00327417347 43307.63603179275 87315.62412703228 43307.63603179982 13519.252637689387
          42063.08426375472 13233.360689351613 100331.88755708441 100331.88755711724 13233.360689333436 51061.395020085045
          98996.9632340078 51061.39502009861 12446.971556004766 49726.4706969988 21726.727121180447 24930.37772401925
          5008.163655404156 14564.266908619618 22376.87845650647 12167.694039869624 8454.08050246811 14927.413255776424
          17486.40843336198 8834.70555958395 12613.90282964521 11647.934514715027 15138.885688296374 10592.69204181809
          10650.379352150294 10326.76756556846 31126.517799218447 34497.27860180927 2728.28218250189 18675.248066792854
          31411.99871981294 15702.965154205971 7340.446668294936 26028.5814792663 29982.77989373348 3204.8990821729976
          16466.407456104327 16137.86276530787 26631.20189101339 13558.551142923956 7688.956770974435 14124.79098596463
          39821.50996298609 42936.61176344715 3039.6382634566776 22986.384602311435 39985.38731066973 20377.590241863123
          7235.806568433323 35240.02176457498 38657.8711532491 2689.065586890371 21000.062167962737 20555.96706869464
          35564.69459281114 17889.1262391998 7155.142070509635 18575.57620079045 48038.134541645515 50830.98359268361
          4429.655129873652 27306.965156528626 48050.946868667896 25259.960273941047 7910.980661179006 43759.221014990864
          46775.61291367878 3519.9447459123276 25610.604677585874 24962.804597551658 43905.49323738287 22711.05141748791
          7385.357541067323 23208.697976917454 57376.46289534452 59774.12072124204 7043.909184618311 31718.790422625854
          56775.897413284154 30233.235732327776 9821.484877034334 52227.54189069536 54664.00503906087 5051.107242525245
          30122.911924556844 29368.925675398277 52034.313099638595 27553.565378425537 8208.607342294199 27817.469458598884
          65227.06218046782 66322.42356717183 4149.119661862485 33934.75384143158 63833.86589920596 31188.203935679874
          7424.967955453212 31581.849248492297 21726.727121174037 14564.266908610967 21412.984865282866 14927.413255770094
          13851.332009732452 11647.934514708 14897.373726735757 11068.936098522416 31126.51779920901 18675.24806678033
          31749.200306304807 26028.58147925833 17943.529921265843 16137.862765297374 26509.448535656553 15316.604167026897
          39821.50996297258 22986.384602294635 40549.0298029866 35240.02176456548 22290.407845465634 20555.967068680307
          35922.38312272959 19763.765600958373 48038.134541628286 27306.965156509294 48763.94729973069 43759.22101497534
          26611.269592917408 24962.8045975349 44449.55631275559 24185.75250261652 57376.46289532671 31718.790422602982
          58565.39693257318 52227.54189067706 31015.13797567458 29368.925675376646 53001.15149949707 28607.16669034565
          65227.0621804477 33934.75384140787 66338.41774579375 33123.61473765478 7043.909184568318 59774.12072119031
          4149.119661816945 66322.42356711409 30233.23573227665 56775.89741325144 9821.48487699584 31188.20393562536
          63833.865899167984 7424.967955420714 30122.91192452098 31581.849248454186 4429.655129830631 50830.98359263812
          5051.10724247806 54664.005039009644 25259.96027389842 48050.9468686373 7910.980661145801 27553.5653783787
          52034.31309960551 8208.607342256822 25610.604677555595 27817.469458566015 3039.6382634208016 42936.611763413006
          3519.9447458737686 46775.612913640776 20377.590241827966 39985.38731064591 7235.806568405431 22711.05141745052
          43905.49323735646 7385.357541038527 21000.062167936732 23208.69797689074 2728.282182480759 34497.27860178593
          2689.0655868618614 38657.87115322144 15702.965154182712 31411.99871979661 7340.446668277957 17889.12623917053
          35564.69459279304 7155.142070487848 16466.40745608665 18575.576200769327 5008.163655382258 24930.377724001948
          3204.8990821548814 29982.77989371483 12167.694039852311 22376.878456494494 8454.080502450364 13558.551142904698
          26631.20189099939 7688.9567709581115 12613.90282963264 14124.790985948594 8834.705559563145 17486.408433345874
          10592.692041805081 15138.885688285256 10650.379352134965 10326.767565560684 31852.959872541134 4698.559231084894
          34546.648961008555 17875.40936829953 8651.16145696153 14972.751974708222 32378.31383123978 25044.17704240851
          9738.88698721009 28874.546218473628 15864.885522762153 13351.837924138283 11812.251290535489 12805.772158600548
          26015.217630696832 12412.790016374849 38549.43320160417 3430.802424587881 41548.796201229765 22584.91592019797
          7606.734125668276 19894.86608935708 38701.157505633004 33886.001167742084 3319.9448701830624 37288.492942969104
          20559.012592098894 20061.323846847838 7610.263886628419 17505.45910814039 34269.63013922583 18141.187214491434
          47111.80321332392 4104.746344139547 49902.32668612922 27005.686819736362 7760.202548968687 24747.264646648146
          47193.81102381061 42615.43092574965 3625.5242608227136 45615.62226649249 25220.73491790341 24587.119449731286
          7545.684426368213 22229.466614989808 42797.823458872284 22780.647293952454 55302.63023307752 5605.481179751974
          57800.81919508382 31378.51271042737 8623.153024112466 29621.914404219446 55262.77738852621 51067.22678025834
          4644.9786995492595 53763.749723666784 29861.72942312088 29032.69629170555 8015.893150619806 27082.927123303343
          51144.67941360753 27458.84919380899 64695.94280421731 8247.210873252232 66772.24713337181 35843.475146515266
          10615.615704047854 34579.558438651045 63999.30541305011 59538.75783780395 6216.67862197564 61659.766938363726
          34377.289993888015 33475.230236007796 8952.537934259513 31897.188302077448 59274.18370994118 32072.326344008114
          86045.8524496941 1652.0206257491154 85276.95705941989 39593.21514599613 6120.168876223091 34293.01253058255
          83543.06659570188 72991.75038625169 4700.720275879962 73616.62943760489 35660.14142396054 38037.98619681175
          7654.9665682079885 35339.368205512714 71409.62516840469 35712.98921707663 31852.959872564672 17875.409368301032
          31404.742246137277 25044.17704243426 16902.600868297686 13351.837924138368 24863.655180366335 12615.05811258509
          38549.433201626314 22584.91592020154 39188.97750681761 33886.001167764254 21890.30265918991 20061.323846851476
          34407.647266582855 19232.144639423543 47111.80321334758 27005.686819741662 47778.64676644423 42615.43092577327
          26357.504151592068 24587.119449736114 43251.68476095705 23843.258487246556 55302.63023310113 31378.512710434432
          55960.293030962624 51067.22678028254 30735.249125599054 29032.696291711905 51688.668298835466 28310.44516095351
          64695.94280423934 35843.47514652427 65868.47330399675 59538.75783782789 35214.88013218642 33475.23023601595
          60268.62764577456 32782.70853775308 86045.85244971626 39593.21514600322 86951.13637659009 72991.75038627499
          38827.76758382683 38037.98619682035 74107.07019819345 37315.552489867165 85276.95705945465 1652.0206257215198
          66772.24713339709 8247.21087327706 34293.01253062005 6120.168876183345 83543.06659573197 73616.62943763514
          4700.720275887591 34579.55843869831 10615.615704043688 63999.305413075024 35660.14142398961 35339.36820555743
          7654.966568191945 71409.6251684344 34377.28999392058 35712.989217109236 57800.81919510736 5605.481179780856
          61659.76693838943 6216.67862200532 29621.914404264644 8623.153024107567 55262.77738855165 31897.18830212378
          8952.53793425658 59274.183709968405 29861.729423150144 32072.326344038895 49902.326686149885 4104.746344162899
          53763.74972368931 4644.97869957626 24747.264646690444 7760.202548957281 47193.811023834125 27082.927123347454
          8015.8931506121735 51144.67941363265 25220.734917929753 27458.849193837083 41548.79620124734 3430.802424602073
          45615.62226651114 3625.524260842716 19894.866089394567 7606.734125650101 38701.15750565361 22229.466615030353
          7545.684426353791 42797.82345889449 20559.01259212172 22780.647293977567 34546.64896103539 4698.5592310800075
          37288.492942985366 3319.9448701905167 14972.751974732044 8651.161456939526 32378.31383126797 17505.459108174233
          7610.263886607096 34269.63013924615 15864.885522778095 18141.187214512916 28874.546218508945 9738.886987190259
          12805.772158612002 11812.251290513495 26015.217630734103 12412.7900163862 109339.2193063765 19971.97448259369
          -1919.6976177324373 102651.10404821328 44834.678680301906 6138.795411602058 33065.20523065446 103309.73972552683
          101665.45701984792 17727.24583760989 2254.8073285273617 97961.05033877693 37423.76958397849 44467.617292527255
          8932.933438449765 35584.28286087795 97396.3495818436 38640.995537372495 122813.32434375657 21109.46353082218
          -2093.604633831873 113589.69751300993 49371.113103634125 6793.173987146869 35213.798203972045 115136.59473845632
          120742.41691815216 21652.07380092198 2564.6880305733334 112833.34806385476 40430.63612718461 50805.03964458828
          11083.138099404587 37621.668050816326 113794.91029549985 42361.6742010545 133665.1953389775 20073.42844666986
          -3613.3193872486177 122765.61792207314 53807.07165675736 5464.95166233815 38470.74074487382 124998.25937371359
          132972.9171380041 21332.731216799253 1503.5134625641967 122667.94060842025 44126.19699548744 56132.975770744495
          10452.28008560411 41094.58056065597 124493.8322775816 46481.90970675661 140622.27100822344 18953.667980073118
          -4857.602109723692 128917.3951679946 56499.48699443219 4094.7446726496455 40808.07559774128 131498.1365603745
          142263.3261958773 20306.46764114465 397.36873119781876 130535.98855571322 46574.6196851179 60167.98644816212
          9389.845999332527 44247.0080732149 132960.08158183386 49955.29322034257 146545.7361201625 18335.839426118313
          -5534.891795455971 133694.97621288165 59238.24667248645 3605.265101848577 42686.982688579796 136838.71274541537
          148525.20391939703 19504.21125656828 -423.2522060962938 135885.14613922595 48828.92940349893 62986.51565809317
          8563.776807754966 46506.975674017114 138697.34861510442 52406.59141888196 150725.29473556677 19069.58414187276
          -794.9989941806994 137689.73041770427 63494.729051278206 8044.899203563495 46885.21796404343 140711.6144238796
          52816.10906600321 109339.21930640016 19971.97448254527 44834.678680310084 19299.876436028437 110265.63947847579
          101665.45701987162 17727.24583756295 43442.59969184942 44467.61729253699 15568.175552069219 102510.29010826285
          43248.55126464974 122813.32434377556 21109.463530776153 49371.11310363997 19774.927715973317 123840.9115993545
          120742.41691817457 21652.07380087607 47992.50703260071 50805.03964459746 18775.597912636604 121828.48895280805
          49608.526581517566 133665.195338993 20073.428446629845 53807.071656760774 18578.65730497455 134722.69965928583
          132972.91713802185 21332.73121675596 52455.69987408613 56132.975770749865 18101.70962311143 134321.4924371047
          55092.09479645739 140622.27100823214 18953.66798004478 56499.48699443205 17537.726949813383 141655.8654488008
          142263.3261958902 20306.46764110977 55148.011601469865 60167.98644816461 16945.655657613403 143693.5152893301
          59223.43203437311 146545.7361201638 18335.83942610516 59238.24667248278 16687.478713614146 147493.7166390082
          148525.2039194023 19504.21125654761 57890.31090318388 62986.51565809173 16065.339558849431 149970.22201249763
          62096.18941712015 150725.29473556462 19069.584141869098 63494.72905127375 15690.413075382816 152057.11312965842
          62582.480023172684 133694.97621287795 -5534.891795464777 137689.73041769437 -794.998994173422 42686.98268857901
          3605.265101835549 136838.71274541388 46885.21796403891 8044.899203564564 140711.61442387226 48828.92940349714
          52816.109065996854 128917.3951680032 -4857.602109756561 135885.1461392285 -423.2522061173768 40808.07559775087
          4094.7446726133694 131498.13656038168 46506.975674021975 8563.776807730359 138697.34861510753 46574.619685125086
          52406.59141888535 122765.6179220936 -3613.319387302543 130535.9885557272 397.3687311548265 38470.740744890914
          5464.951662284295 124998.25937373014 44247.008073229736 9389.845999287558 132960.08158184582 44126.19699550259
          49955.2932203554 113589.69751304187 -2093.6046338974097 122667.94060844784 1503.5134625050664 35213.79820399605
          6793.173987083557 115136.59473847998 41094.58056067849 10452.280085546707 124493.83227760298 40430.63612720558
          46481.909706776874 102651.10404825085 -1919.6976178032892 112833.3480638934 2564.6880305063396 33065.2052306805
          6138.795411535077 103309.73972555764 37621.66805084547 11083.13809934129 113794.91029552912 37423.76958400308
          42361.6742010808 97961.05033881792 2254.8073284722077 35584.282860912914 8932.933438395516 97396.34958187731
          38640.99553740426 118608.43007916945 118608.43007916134 76170.36289012627 76170.36289009957 115933.9716758673
          109288.60128454055 109288.6012845329 73495.90448681482 65851.40131306769 65851.40131303972 106843.24953079458
          63406.04955931156 131616.3717839905 131616.37178398218 83710.62470871242 83710.62470868733 128620.03435589778
          119027.7844663573 119027.78446634808 80714.28728061132 73714.97944570467 73714.97944567856 116124.21941349863
          70811.41439283756 141654.02515654382 141654.02515653972 89052.78806515256 89052.78806513295 138511.06733176368
          129706.98252715165 129706.98252714577 85909.83024036467 79303.20557111352 79303.20557109099 126617.87272382564
          76214.09576777919 148651.91292084008 148651.91292083974 93145.7743888849 93145.77438887297 145423.25295019042
          137637.9552534604 137637.9552534591 89917.11441822948 83591.54208500263 83591.54208498697 134441.14940722665
          80394.73623876169 152247.23471998188 152247.2347199826 94778.96301684383 94778.96301683858 148975.40219138848
          142686.22804183594 142686.22804183606 91507.13048824747 86298.13168997101 86298.13168996236 139425.71394677018
          83037.61759490086 145110.09936268438 145110.09936268683 87913.42183114338 87913.42183114262 141826.94840056394
          84630.27086902133
        </DataArray>
        <DataArray type="Float64" Name="Max_Princ" format="ascii" RangeMin="-12051.332490707036" RangeMax="148845.58660601577">
          21381.693677606454 5347.3055768328995 5347.305576832376 21381.693677603256 15777.847468095215 4470.620739214265
          4470.620739216769 15777.847468075903 10540.840774093082 2319.1209007323782 10540.840774089 20999.67535625183
          23433.330514498273 7501.941449885451 7501.941449885731 23433.3305144871 6340.391598775529 2298.4123537292066
          6340.3915987693 15048.360167293353 7512.656097990779 10760.942558712484 4917.49752295879 10760.94255870733
          22361.617870897237 4168.183213286104 8176.498631783105 24649.06733466525 5916.113303962173 5916.11330396261
          24649.067334674473 12197.695930892136 2279.2796576187784 12197.6959308935 23830.237893082227 30083.964629032587
          9066.760251069492 9066.760251069993 30083.964629033293 8560.862284549205 14669.30341249107 5594.834825796024
          14669.303412489891 28688.62215524816 11197.377987216763 25520.440571963354 6333.779990004871 6333.779990001096
          25520.440571977724 13160.469933496704 2420.3412134513387 13160.46993349541 24584.04860498054 32263.500279503798
          9706.996320156184 9706.996320152153 32263.500279517782 9247.031156944413 16214.092117524353 5905.254452740663
          16214.092117523855 30693.074569893506 12412.350250110596 25263.63676767064 6515.06784516241 6515.067845161511
          25263.636767687407 13771.394903474606 2395.889239655905 13771.394903476936 24364.302615343644 33105.08083587472
          10291.891127642317 10291.891127643423 33105.08083589015 9652.216297969719 17324.16883267425 6266.755441953088
          17324.168832676787 31512.2444189056 13299.033146985736 25705.725524216377 6940.082794039371 6940.082794035085
          25705.72552422878 14524.214926062687 2683.0867519583207 14524.214926062008 24666.915672214458 33474.20454291534
          10811.16918946397 10811.169189457938 33474.204542931686 10267.218883983438 18232.71755719169 6597.947664138628
          18232.717557190685 31831.539751661858 14019.49603186886 26090.271380611437 6980.486662265494 6980.486662263873
          26090.271380613634 14833.408522755073 2668.72626707149 14833.40852275251 25129.69923483036 32801.83072725022
          10801.980065350474 10801.98006534678 32801.83072725818 10521.648127560598 18507.61697947518 6501.209506513136
          18507.61697947367 31037.83064247944 14206.846420638934 3436.0651632815798 2967.6716176364725 2967.6716176362206
          3436.065163279589 8554.344015681747 9028.62043547051 9028.620435466722 8554.344015673605 3195.4003887114104
          2633.4382934341997 3195.40038870856 3083.773197098956 5294.125961814769 5146.827232041926 5146.827232036709
          5294.12596180877 8447.051437379268 9337.588760180237 8447.051437373211 7564.333309403605 2881.1546565192834
          5326.097346678546 4989.1060220560175 5326.09734667152 4854.555670992844 7800.402845407736 4991.004131971226
          1307.2634271021025 221.20231892577257 221.20231892993954 1307.2634271008237 830.7885816183896 161.16773105815713
          830.7885816194057 1235.178460172009 2107.966514860928 1675.639912180215 1675.6399121843692 2107.966514857717
          778.7784516643576 1937.1915789805741 1507.7386738889763 1937.1915789794398 1936.223916433134 1794.5462597635008
          17.510293059994396 -251.72540403383132 -251.72540404095088 17.510293058001686 -10.352380329754958 -294.2706367260268
          -10.352380335860147 10.661751367840992 463.18250315721434 -116.99824295558923 -116.99824295957396 463.1825031567545
          -29.137066417034873 353.0338249464204 -140.84521502309767 353.0338249434825 436.54217053295133 338.7238719050307
          4141.24665307828 3506.2952485032047 10844.210520033956 9564.28932921843 3785.4363868073524 3322.1251639751213
          3880.4280236427726 6416.418332490676 5382.780280388587 9791.663538306808 9000.187261194777 10293.73863797324
          3565.566322657897 5922.590347704175 5205.609685873545 5973.666022764018 9300.898325034243 5653.835779209517
          1464.4482848082073 364.86187707412114 935.634258993663 303.7666581863254 1377.6647223001194 2421.4934820359426
          1961.6215104083203 889.9337515344293 2157.549228655664 1876.686143383309 2283.2448322046585 2092.7978763675246
          9.351847661452581 -210.9786545420834 -14.576993683055932 -222.74969338155665 -4.255427576486255 559.7867681726195
          -9.377526377842667 -15.742624402276881 429.9067062579148 -63.934679072284695 503.6940331939521 385.95496168372506
          -210.97865454457806 9.351847667476761 364.86187707237985 1464.448284802095 -14.576993686658355 -4.255427576077409
          -222.7496933889354 -9.377526380986312 559.7867681721032 935.6342589916425 1377.6647222953409 303.76665818716805
          -15.742624409566389 429.9067062537284 503.6940331922434 -63.9346790776012 889.933751534349 385.95496167856277
          3506.2952484937027 4141.2466530777465 1961.6215103994182 2421.4934820338854 3785.436386802059 3880.428023643533
          3322.1251639719594 2157.5492286513663 2283.2448322017335 1876.6861433799504 3565.5663226576307 2092.797876366286
          9564.289329211333 10844.210520021104 5382.780280378854 6416.418332482953 9791.66353829549 10293.738637964094
          9000.18726119382 5922.590347694459 5973.666022759685 5205.60968586928 9300.89832502837 5653.8357792051265
          2013.698660712984 2013.698660709471 170.516275537366 170.51627553166176 1084.4550061354644 1084.4550061368625
          1831.1821120225993 1554.4373390673934 1554.4373390638823 673.9748688126951 673.9748688072874 190.357051711083
          752.4619001616662 872.5436252596651 872.5436252581562 1374.390172148862 593.1025385725509 622.766945339642
          717.7837979567848 717.7837979595013 447.7698392906033 447.7698392936028 672.9042839867077 789.063713138456
          789.0637131323699 322.7365216203946 555.4542087520425 555.4542087520117 687.9225146735236 297.107255442485
          532.4936477148428 532.4936477116839 19.523205749125424 19.523205748791938 505.68565686909847 226.52612785418717
          226.52612785896446 -13.491665454568363 16.189031178963212 16.18903118253084 214.146422982665 -24.52909070327575
          1688.7853490842122 925.7138848765173 1342.0275929921786 1855.7274751846112 1643.2630040692268 2136.64765465393
          615.2039194117242 1292.4650484922836 1537.1477669373871 1624.145890764578 1573.1132073519395 1265.0061717955411
          482.7798552517023 506.93825711836877 553.537083098174 416.4899106591693 470.68620654885257 700.0558798471279
          544.5296672746484 648.1107770992174 437.37299018854014 -1.323176483542511 468.7860572488031 201.3467956066515
          -3.9438068918655063 87.41551087782983 190.575057040426 42.610074843018346 437.37299018695546 482.77985524854154
          -1.3231764745691237 468.7860572404121 201.34679560864544 506.9382571155311 553.537083097622 -3.94380689066557
          87.41551088231155 190.57505704174812 470.68620654800463 42.61007484586119 1688.785349082541 416.4899106533615
          1342.0275929961922 1855.7274751806463 700.0558798480373 544.5296672670722 1292.4650484945878 648.1107770980872
          925.7138848812311 1643.263004068547 2136.6476546567246 615.2039194151755 1537.1477669378305 1624.1458907626202
          1573.11320735491 1265.0061717961444 10080.030620916348 2637.928473384399 2637.9284733858153 10080.030620911999
          -40.7409751706006 2600.0457851316805 2600.04578512991 -40.74097516618607 5455.662085860127 2087.606628535667
          5455.662085860926 9105.102025030537 986.4438115567704 1390.6929359253447 1390.6929359258688 986.4438115587537
          1840.156064721423 2337.445586525717 1840.1560647197537 -128.51211808664362 4815.050923288461 1178.0086073432612
          916.8489655895092 1178.0086073436373 830.207084187057 1612.2933517316617 814.838603705811 1017.1320898786491
          1017.1320898786638 781.2022459208935 781.2022459209352 1770.986137149381 1001.7146641998736 1770.9861371497857
          610.2712590104381 610.2712590106315 997.1589641006187 739.7954345357318 997.1589641007122 1655.4025457491928
          743.1224384903667 434.1926419713925 743.1224384908941 864.7092903428759 391.5741783243499 59.38469758142486
          59.38469758118684 910.557044495143 910.5570444946007 474.6224864260765 125.15455489064101 474.6224864259276
          205.7490958461756 205.7490958457833 297.7085043652662 862.9440748002653 297.7085043652563 501.35575107633645
          6.7556326303915295 147.76501509231701 6.755632630449245 283.67923105656564 -60.47591863311246 13139.744918389699
          3470.432923360645 1168.8331049216722 1966.6173136571924 6961.600508086236 3182.0577486491734 12110.818376255911
          3055.185911277545 1585.012277196836 1750.0252664235536 2298.7997868838384 822.3636974144483 6314.119480391617
          1945.421950417939 1608.9427299155532 2347.5980784081216 1826.588432585583 1660.8666912177694 1448.5296571523604
          414.0551164544894 2346.721592006232 1179.6177475036636 686.510159640574 380.3172428539634 516.8877478721666
          2036.8953138501047 856.1505349593446 634.9856788369186 605.732806210621 826.1804826623429 341.727448380802
          732.2479348750348 850.4533604909307 125.57781305191716 144.46831486300056 225.5148514018213 791.550430661806
          607.0779598587872 94.42147519970234 150.4422018607656 214.9677706672315 30.545785676106426 341.72744838012034
          1448.5296571514293 732.2479348746739 414.0551164539788 850.4533604901025 1179.6177475032448 125.57781305154506
          144.4683148627563 686.510159640172 225.51485140168086 516.887747871883 791.5504306612816 607.0779598584274
          94.42147519951371 634.9856788368504 150.44220186050947 214.96777066723126 30.545785676209583 3470.4329233606873
          1966.6173136552468 2346.721592005823 3182.057748650128 1585.012277197565 380.31724285336463 2298.7997868807443
          2036.895313850015 856.1505349594077 1608.9427299158401 605.7328062101807 826.1804826626267 13139.744918374834
          1168.8331049216254 6961.600508081792 12110.818376244599 3055.1859112739744 1750.0252664219788 822.3636974149758
          6314.119480389049 1945.4219504168298 2347.598078406478 1826.5884325829927 1660.8666912169972 346.51013279495913
          346.51013279451 -1878.8340301201847 -1878.8340301196004 902.9652786610404 273.33276082272255 902.9652786607943
          -406.3876189405843 -406.38761894066965 -507.5808233209184 -1940.748499850747 -507.5808233206832 842.931616744535
          536.4493642643793 -441.5111474683663 536.4493642641849 -526.9797722881017 517.4486119423638 -885.0145022638253
          -885.0145022643737 1913.18655976507 -1062.1136372052229 1913.1865597654423 201.20475581987924 201.20475581979997
          1631.2001699717603 1368.6200077327162 141.88936299338025 1368.620007732814 1270.2857873278087 12554.522057542026
          12554.522057567774 9809.273956191619 12204.199329737903 9809.273956200184 -1120.018312005021 -1120.0183120012484
          8963.113513499715 4513.01866750579 -1645.26258039908 4513.0186675083305 4126.122676744814 -99.90061256254688
          -2156.89057120588 1014.7477694907377 139.49410740792604 -742.0311930588581 -303.7509495737297 -2017.4331844761505
          968.4740163397711 709.0849495366014 -587.175760414285 -426.4945306421293 601.7394143830453 -1095.9896719945932
          2114.828696373928 -1080.688402140406 -327.97110582982896 1976.2649404841568 1496.7349305510231 -43.99603730192325
          1471.5740206341789 15704.189157860263 12755.337338434147 13995.71104081633 15.023993364190785 11396.579937869747
          5506.900841327741 -637.0762313763448 4856.206543544038 15704.189157905645 -1095.9896719912801 12755.33733844613
          13995.711040857514 15.02399337794515 2114.828696375205 -1080.6884021398191 11396.579937881474 5506.900841332629
          -637.0762313679538 1976.26494048485 4856.206543547277 -99.90061256295702 -327.97110582851525 1014.7477694900214
          139.4941074074987 1496.7349305513349 -43.996037301395745 968.4740163393383 1471.5740206342755 -2156.8905712053406
          -742.031193059464 -303.75094957395805 -2017.4331844751919 709.0849495357083 -587.1757604144577 -426.49453064190845
          601.7394143826158 95501.8796309418 95501.8796309777 74151.67686019505 74151.67686022038 38994.200479971405
          96213.46608103681 38994.200479996645 91983.46883184146 91983.46883187316 34863.49433596797 74589.8297323031
          34863.49433599314 38048.48473081658 41977.68820277494 92654.82334246857 41977.68820280056 34264.14684154656
          41201.59349614041 108096.36201354399 108096.3620135785 43501.33877088642 108957.83555832758 43501.33877090789
          110122.33419884875 110122.33419888417 42525.850189103876 48921.405908119734 111419.50450988852 48921.40590814578
          48358.44397490293 119783.81762089416 119783.81762092857 48469.13029655289 120758.73014094774 48469.13029657102
          122840.50517635033 122840.50517638607 47569.43965251988 54744.7076438211 124321.06175624825 54744.70764384077
          54309.68623044342 128310.8495101213 128310.8495101525 51804.171269860446 129178.79083365487 51804.17126987614
          133721.2150560708 133721.2150561035 50928.63188287609 59660.5417485339 135246.42362685845 59660.54174855094
          59339.77005472802 136610.0606559497 136610.06065597115 55761.288410314315 137509.72640003174 55761.28841032501
          142124.58943190033 142124.58943192757 54985.42214045229 63610.04527287431 143616.74529606817 63610.04527288796
          63407.832009187565 138472.17508056172 138472.17508057 56702.996620204576 139412.22824656856 56702.99662021005
          146344.5731484766 146344.57314849104 56215.21072814941 64772.7839227058 147364.559796586 64772.783922713
          64254.06461655139 97750.75148582042 -7561.720465601625 78272.90888710815 -583.0846758758473 93053.68207348076
          28080.512326721015 2561.0723294226077 95009.70192805518 809.8347292898779 73688.12127640538 29918.685099884486
          4935.66934294877 30793.374018063303 90358.87790678268 33511.33814011023 9099.0430841502 30385.6683039454
          35330.53030690414 110761.5546438179 -8668.419889831464 105145.16412221422 30581.004209545987 3137.6789067298864
          112689.99298581546 -131.83082791239212 33675.85834702481 107125.92813495397 36649.50490073708 11003.796359821088
          39435.286069173075 122193.85590162032 -9929.327047012748 116301.82754336233 34356.73995278227 2575.676383293541
          125098.67860036824 -949.2333602864892 37663.22748880642 119154.84903212052 40773.172463360854 11252.223669200892
          43901.98619398068 130678.30367680031 -11302.86276100028 124630.07987111423 37174.41378804043 1389.605792312438
          135581.13168773393 -1646.810772249506 40496.53616185376 129563.92773706105 44717.6616653792 10984.762256471084
          48024.84620440305 138033.25591940316 -11702.70169293914 132234.42421014977 40084.05974440307 1274.4225411040325
          143629.5016412778 -2121.8348035906984 43673.20600679797 137594.5568327919 47976.71887148743 10675.828126527464
          51358.077932303546 140007.1715304549 -11255.202913359572 133995.49171476666 40950.87822504331 1448.0711740659071
          147650.9850758363 -3083.1493825685484 44296.67536091192 141749.39414884243 48898.59765633213 9734.563838426588
          52356.658803332764 -11255.20291335121 140007.17153043416 -11702.701692923003 138033.2559193626 40950.878225029424
          133995.49171475222 1448.0711740735846 -3083.1493825543184 147650.98507580586 40084.05974437378 132234.4242101213
          1274.4225411238863 44296.67536090085 48898.597656312435 141749.39414882124 9734.563838441176 43673.206006776585
          52356.65880331788 -11302.862760978016 130678.30367673861 -2121.834803568937 143629.50164123368 37174.413787998186
          124630.07987107354 1389.6057923415237 47976.718871453675 137594.5568327608 10675.828126554428 40496.536161825425
          51358.077932278924 -9929.327046986726 122193.8559015457 -1646.8107722263348 135581.1316876622 34356.73995273519
          116301.82754330823 2575.6763833181803 44717.661665332394 129563.92773701446 10984.762256498878 37663.2274887689
          48024.846204371126 -8668.419889810315 110761.55464373628 -949.2333602604749 125098.67860029123 30581.004209494648
          105145.16412215511 3137.6789067481022 40773.17246331231 119154.84903206093 11252.223669221043 33675.85834698327
          43901.98619393791 -7561.720465591887 97750.75148573011 -131.83082790173103 112689.99298572626 28080.51232666713
          93053.68207341759 2561.0723294316535 36649.504900678665 107125.92813489243 11003.79635983177 30793.374018022638
          39435.286069128495 -583.0846759072449 78272.90888703818 809.8347292818444 95009.70192797027 29918.68509983025
          73688.1212763595 4935.66934292272 33511.338140055675 90358.87790672573 9099.043084142102 30385.6683039059
          35330.53030686354 1376.1567120580505 10909.28604967256 10909.286049659417 1376.1567120608415 2232.377557035168
          11067.278751576066 2232.377557026399 1275.3122107542004 1108.2811977501683 10868.12182485946 10868.12182484889
          1108.2811977552465 2131.5330557255375 1827.9354838767472 10779.268066415305 1827.9354838744298 1614.241355956081
          2333.895642078962 1447.435113797636 10481.194940064675 10481.194940044674 1447.4351138020834 2412.4952533741744
          10654.187474720919 2412.4952533614505 714.2553536570199 1196.237525282084 10208.489653590923 10208.489653572171
          1196.2375252873367 1679.3154932249722 2367.1086244368835 10331.447355393666 2367.108624426411 488.5883644708456
          1659.4594636177824 1512.5299473733176 10383.408852773848 10383.408852754059 1512.5299473791215 1968.1631797777745
          10430.04050852921 1968.1631797648201 773.132110750846 1281.512267127997 10280.907925283884 10280.907925263518
          1281.5122671338308 1228.7653431459235 1957.0290225817566 10355.680112124031 1957.0290225689728 522.801907659099
          1198.3186631035499 1639.637610326491 10781.817012264642 10781.817012247013 1639.6376103326334 1849.228217599291
          10431.677200551863 1849.228217586557 847.6871444165217 1281.1102758043144 10337.767561649105 10337.767561630319
          1281.1102758103293 1057.277751679884 1594.407146229073 10233.733051851439 1594.4071462161887 561.0249620283894
          874.3218324436984 2523.8297445301323 13620.91100082264 13620.911000806076 2523.829744536317 3358.397779485545
          12306.383296032001 3358.3977794739512 1169.2889431413087 1370.2811916112573 11259.698307287492 11259.698307270706
          1370.2811916181151 2003.8569780878322 1810.2413511880477 10635.610852428945 1810.2413511760524 506.46557356753874
          946.4257331349027 4691.782402941407 16204.700032927465 16204.700032904788 4691.782402946357 6731.31581713405
          15536.576439626973 6731.315817125037 2399.3452772442156 2661.3686076883364 13856.17269774759 13856.172697728682
          2661.3686076944464 4438.878691429877 4669.081155688822 12803.934782798044 4669.081155678226 816.1026229547069
          2823.8151709468398 9013.248555479202 1321.1777848043616 1321.1777848053257 9013.248555472177 2107.3920244895244
          1123.5365873325666 2107.3920244870014 9471.186766931713 8979.619210347615 1109.7184517902012 1109.7184517861122
          8979.619210341994 1909.7508270159856 1446.1240622451835 1413.033411078909 1446.1240622410212 8847.09566031551
          1749.4390215338547 9917.308722538697 1340.5783506491857 1340.5783506597895 9917.308722526617 2535.7400077647767
          606.8247587870247 2535.740007765746 10163.99311694711 9605.40393008866 1114.2200914815194 1114.2200914881118
          9605.403930077513 1801.9864158977985 2333.986082217152 415.62273724950865 2333.986082216845 9735.198588467378
          1635.3887279816915 9985.396514674312 1437.892835575421 1437.8928355798973 9985.396514656602 2168.191079966804
          686.827141030053 2168.1910799608313 10102.333654621536 9852.796458182942 1206.011046265295 1206.0110462726861
          9852.796458167062 1417.125385416211 2140.465429114689 437.1012167693716 2140.4654291097113 9970.387269397726
          1371.555599612581 10328.38444961058 1581.1451167995356 1581.1451168054614 10328.384449590785 1992.4186453739703
          785.8634518543431 1992.418645368312 10079.881030517516 9919.66942070836 1220.9624558234896 1220.962455826735
          9919.669420691947 1197.136980422986 1767.8514297381125 487.7408962295185 1767.8514297328297 9890.915923857998
          1034.6298701398775 12968.238777454688 2423.8121206360693 2423.8121206391797 12968.238777428332 3308.2773989114867
          1115.1548134643565 3308.2773989012635 11795.94884370554 10743.526509577707 1315.673481878086 1315.673481883631
          10743.526509552934 1999.6200917331068 1895.0035423459153 458.3317115801419 1895.00354233682 10227.902691220284
          1037.6617720406512 13338.660334619666 2550.7137537051635 2550.7137537097487 13338.660334596005 4445.480247884381
          790.7409096616366 4445.480247876938 12340.273138280121 2685.50740383484 22469.532830743534 23675.009094766472
          3971.230271467326 13223.450823619736 23045.630448652606 11885.687447507255 5604.107401084571 15588.249376269627
          15868.25942589501 8719.416924166058 12387.43668925894 10307.779461562688 15660.513989447607 10190.052714668482
          8988.186854682233 10220.564961702868 31268.963914608677 32936.0861850098 2225.2764840401705 17727.71222773551
          31393.314761166643 15863.856392466583 4912.361792166106 26456.322858959873 28335.24408628 2737.612848539462
          16436.01333460797 15223.502690330504 26724.815944909737 13765.349456552492 5175.180891667846 14178.919407431551
          39796.707945370785 41613.88922459034 2731.47595282427 22198.705066418785 39901.16704697207 20587.17616200439
          5277.683235606575 35363.25849805609 37282.001006399725 2367.1231283783145 21003.918714586413 19798.71859764643
          35537.5695864841 18161.991194129456 5034.408987902231 18623.4184139336 47764.80853580133 49938.14935028598
          4145.4248528656235 26659.368791301284 47927.599136447265 25482.209506642983 6369.440983194931 43723.55610064362
          45592.43392580433 3292.82927751895 25588.942464888278 24298.4751346021 43858.794130661765 22934.189621515383
          5665.331123737983 23253.62064705362 55943.173178444544 59628.235639540086 6555.116206505296 31542.20418332342
          56216.86140450001 30559.307406712476 8958.762936413445 51534.99930029193 53901.494756569846 4812.419430792166
          30055.44365414651 28894.129471323184 51757.41861529655 27746.243883961615 7031.334336493321 27783.663266175543
          62571.624364011 66482.30811575001 3202.445544463051 33802.42576837068 62593.60529766518 31388.353007205493
          6580.79360930021 31133.175630581653 22469.532830736145 13223.450823611789 21860.06745454813 15588.249376264961
          12894.969311830198 10307.779461557457 15432.70571503151 10073.457229883326 31268.963914600827 17727.71222772344
          31596.645250336136 26456.322858950334 17356.514937163767 15223.502690317946 26763.789590083456 14820.04769805395
          39796.70794535632 22198.70506640166 40228.404999553066 35363.25849804489 21800.182843834198 19798.718597631996
          35786.3686707261 19365.58140273685 47764.80853578605 26659.368791282515 48175.91563967928 43723.556100628935
          26186.409650153742 24298.475134585737 44115.83598091807 23817.776711762574 55943.1731784243 31542.204183299156
          56439.10751598551 51534.999300274976 30891.076793621294 28894.129471301032 51789.47299277728 28299.99316047248
          62571.624363991315 33802.42576834847 62822.02603933904 33110.53307367934 6555.116206456801 59628.235639483915
          3202.44554441567 66482.3081156893 30559.30740665962 56216.86140446419 8958.762936376641 31388.353007152447
          62593.60529762685 6580.793609265691 30055.443654109677 31133.17563054623 4145.424852824127 49938.14935024536
          4812.419430747538 53901.494756521985 25482.20950660073 47927.59913641938 6369.440983161694 27746.243883913317
          51757.41861526762 7031.334336459829 25588.942464856525 27783.66326614228 2731.4759527882597 41613.88922456198
          3292.8292774807 45592.43392577062 20587.176161970783 39901.167046950824 5277.683235578075 22934.18962147908
          43858.79413063736 5665.331123707872 21003.918714560114 23253.620647026037 2225.2764840137543 32936.08618499251
          2367.1231283462184 37282.00100637682 15863.856392442227 31393.314761156813 4912.361792146079 18161.991194099424
          35537.569586467274 5034.40898787819 16436.01333459055 18623.41841391064 3971.230271454576 23675.009094753615
          2737.612848524057 28335.244086264946 11885.687447493474 23045.630448642296 5604.107401071052 13765.349456534794
          26724.815944899136 5175.180891652762 12387.43668924605 14178.91940741624 8719.416924146995 15868.259425885226
          10190.052714654574 15660.513989442545 8988.186854665393 10220.564961692433 32453.975321132806 4779.662238870598
          33229.80487815517 16901.847022792303 7224.8220293000595 14580.290818124307 32865.70580739207 28117.69763560524
          9541.336385660357 29251.96348915958 15620.821177957485 12631.940148266363 10276.15228747324 12356.089783884589
          28590.708378968004 12392.870179695241 38560.849486701954 3117.124720970992 40227.30819725907 21807.23625444367
          5693.400375353131 20036.873345160027 38656.280323542785 34202.62461681107 3000.771561910418 36060.01838799421
          20539.49723549295 19344.376064329932 5575.784656044285 17722.069647700544 34412.58477174741 18185.85938664407
          47066.19583583006 3873.4562911541625 48766.25791332692 26320.43459835559 6130.699971183847 24921.119976633767
          47132.659109199194 42662.61196749533 3402.457353799177 44439.40133336635 25232.942414584744 23933.2673451363
          5807.26486158876 22458.56844292453 42772.04849533975 22827.29577780602 55013.95496462691 5363.53074244163
          57074.61613712816 30807.122533961945 7324.704821200092 29816.22596793945 55155.02395871334 51012.56295471103
          4472.852671681892 52725.559142609665 29837.01691811127 28444.722570305752 6566.788327526352 27264.092556590465
          51109.97017595549 27503.265901185605 63169.572974154566 7811.01768860136 66849.90695234286 35744.824721767756
          10011.660683380342 34900.7318583794 63431.89632194953 58779.92196927061 6022.479918923284 61046.90590288347
          34292.04804057222 33067.116908868906 8011.515131169207 32064.111317767798 58983.93322328148 32027.142584089765
          82446.39228248285 -770.8548226658665 86488.46052777497 38815.05994690192 4846.318721593414 33580.49022027261
          81860.30850059952 70124.08308747115 3853.4475865558024 73995.99920552947 34075.000978814525 37975.232945032214
          7123.046761651139 35535.84406499279 70080.29902212809 35212.79356083977 32453.975321153077 16901.84702279955
          31583.8695808306 28117.697635633944 16319.868182980616 12631.940148272817 27765.12069179056 12293.408410375
          38560.849486720625 21807.236254451687 38904.09244273094 34202.62461682985 21439.997302208656 19344.376064337972
          34535.97073915368 18934.975664098183 47066.195835850536 26320.434598365042 47470.52731319274 42662.611967515455
          25933.300290773317 23933.267345145192 43059.947454952606 23509.93075485377 55013.95496464783 30807.122533973074
          55388.21087916409 51012.56295473199 30352.169929843792 28444.722570316088 51365.717416053994 27981.978610757975
          63169.57297417558 35744.82472178037 63642.13832592755 58779.921969291914 35123.16328993878 33067.11690888066
          58995.376139345986 32500.55271180477 82446.39228250747 38815.05994691317 82875.61026359553 70124.08308749396
          38275.59032849206 37975.232945044656 70360.83073007982 37337.98622723486 86488.46052781893 -770.8548226669272
          66849.90695237524 7811.017688632737 33580.49022031446 4846.318721577395 81860.30850063465 73995.9992055665
          3853.4475865763043 34900.731858425635 10011.660683388596 63431.896321976834 34075.00097884448 35535.844065038335
          7123.046761651078 70080.29902215971 34292.048040604364 35212.79356087233 57074.6161371581 5363.530742474964
          61046.90590291543 6022.479918957302 29816.225967983053 7324.704821208178 55155.02395873969 32064.111317812727
          8011.515131178284 58983.93322330944 29837.016918140464 32027.142584120225 48766.25791335502 3873.4562911828984
          52725.55914263871 4472.852671713287 24921.11997667444 6130.699971187281 47132.65910922417 27264.092556632688
          6566.78832753214 51109.9701759813 25232.942414611207 27503.26590121341 40227.30819728435 3117.1247209927346
          44439.40133339253 3402.457353825025 20036.873345195956 5693.400375352357 38656.280323564846 22458.568442963056
          5807.264861590059 42772.048495363364 20539.497235516017 22827.29577783099 33229.80487818776 4779.6622388809765
          36060.01838801894 3000.7715619257506 14580.290818149555 7224.822029300923 32865.7058074193 17722.069647732893
          5575.7846560402995 34412.58477176946 15620.821177975295 18185.859386665426 29251.963489208596 9541.33638564662
          12356.08978389743 10276.1522874617 28590.708379010877 12392.870179706113 104460.80073840475 21914.663591663524
          -8701.293399007918 106382.59170682012 42665.65002157953 1881.8763773743094 30947.851238959578 101699.72150455823
          101387.11105864865 24413.242208078784 578.8619830747248 104194.41950072383 33898.001026019745 46293.11917397585
          9207.091336385049 37218.89480838525 99517.29706966144 39194.44826950921 116089.66293514601 25062.580043342026
          -9687.270666181994 118504.40899455079 46707.81565383644 2511.6487034242773 33057.2343879689 112845.75511447765
          119283.2204967916 31162.39781496001 -555.2406055306783 121606.1861505879 36327.367132735475 52971.17495107121
          11026.864674059525 39907.62287614958 115961.56325726259 42876.364069282026 126331.87189471396 25611.80296707076
          -10789.510359807715 128491.89790676793 51103.20842927399 1942.3336510327417 36428.21733950461 122588.93885449311
          130648.93536296199 32945.394466941354 -1386.2289302064928 132637.6386419784 39842.65981878742 58187.12901949442
          11118.895436119972 43540.88519983401 126654.34468186164 46801.80040293885 132952.8180663735 25125.665174602847
          -11937.821465833322 135096.79760778786 53688.1577486749 836.9645382809185 38674.525690568786 129061.49108913596
          139677.9980338858 33362.64650467405 -2043.0883116895811 141279.636798961 42044.26543329995 62285.58343923681
          10729.081627515767 46857.14103173666 135270.61893837905 50238.71707104835 139061.42594866708 25515.027128749276
          -12051.332490702898 140325.51791747386 56760.14192771942 938.8084486569041 40880.25095057303 134540.85840484194
          145853.1820292108 33440.81285316994 -2405.9640658063354 147175.40146703774 44482.99166393698 65257.13846869921
          10420.106113629565 49335.92715169779 141162.47440072865 52742.4987082612 147623.67470415143 32742.430569719872
          -3188.635774247088 148845.58660601577 65354.67150520964 9636.62620089643 49363.583439177324 142960.2449229208
          52833.54358520161 104460.80073843201 21914.663591640256 42665.650021591515 21668.85679357306 105166.23487771198
          101387.11105867548 24413.242208055453 41744.63393326646 46293.11917398836 23408.74930904499 102086.74842894194
          45568.937567550776 116089.6629351693 25062.58004331794 46707.81565384538 24298.438613868813 116927.77590355245
          119283.2204968173 31162.39781493745 45753.68269782422 52971.17495108263 29791.33436975222 120619.76908579972
          52467.51309587018 126331.87189473303 25611.80296704693 51103.20842927929 24689.28516492623 127251.6584408611
          130648.93536298208 32945.39446691654 50223.20901411801 58187.129019500906 31373.56434579404 132127.6540833553
          57812.376512109746 132952.81806638621 25125.66517458208 53688.15774867572 24201.09103534439 133734.0349165324
          139677.9980339012 33362.64650465043 52816.89367557928 62285.58343923934 31743.200517558405 141141.34981810133
          61997.8285962296 139061.4259486688 25515.027128737293 56760.1419277149 24415.959525799364 139887.84056910765
          145853.18202921824 33440.81285315172 55955.73904211781 65257.138468696656 31725.21167858989 147219.02860441402
          65027.41855297899 147623.67470414808 32742.43056971536 65354.67150520442 30911.408274561545 148552.60941603576
          64786.002526751654 140325.51791747054 -12051.332490707036 148845.5866060055 -3188.6357742450773 40880.25095057231
          938.8084486490461 134540.85840484267 49363.58343916942 9636.626200897743 142960.24492291495 44482.99166393641
          52833.54358519556 135096.79760780057 -11937.821465846471 147175.40146703887 -2405.964065816587 38674.525690582945
          836.9645382586896 129061.49108914711 49335.927151703036 10420.106113610756 141162.47440073165 42044.2654333088
          52742.498708263105 128491.8979067933 -10789.510359830774 141279.63679897797 -2043.0883117097555 36428.21733952688
          1942.3336510025529 122588.93885451344 46857.141031754014 10729.081627487165 135270.61893839217 39842.6598188036
          50238.717071059575 118504.40899458977 -9687.270666206547 132637.63864200856 -1386.228930231814 33057.2343879998
          2511.648703392122 112845.75511450652 43540.885199859695 11118.895436087878 126654.34468188461 36327.36713275751
          46801.80040295756 106382.5917068662 -8701.293399032631 121606.18615063299 -555.2406055540096 30947.851238994313
          1881.8763773430405 101699.72150459395 39907.622876184556 11026.864674028333 115961.56325729513 33898.00102604602
          42876.364069306794 104194.41950077208 578.861983057559 37218.89480842481 9207.09133636018 99517.29706969907
          39194.44826953961 5557.047973538021 5557.047973542919 11233.221982238978 11233.221982233877 2354.3322362843337
          8013.086085899495 8013.086085903657 8030.506244980291 11570.962813134609 11570.962813127551 5273.477819238928
          8831.354546468432 6117.461158578708 6117.461158582458 12850.677476213601 12850.677476208453 2301.615061687902
          9580.702419841402 9580.702419845202 9034.831379318348 15637.538605098143 15637.538605093167 5914.879211993675
          11971.715397246027 6495.771082263768 6495.771082268508 13680.83841146376 13680.838411460021 2439.2157191565984
          10121.935283552997 10121.935283557457 9624.28304835235 17039.10699694957 17039.10699694501 6156.066297619493
          13073.238011011555 6622.645227767374 6622.645227770483 14131.191401269543 14131.191401265372 2404.998962798283
          10599.215381622482 10599.21538162625 9913.545136296814 17944.625039566105 17944.625039561935 6451.973641341021
          13797.383299280675 6991.933003698205 6991.933003700504 14706.548030618767 14706.548030615713 2686.5324930949346
          11001.147764251817 11001.147764255078 10401.147520012822 18616.21873027733 18616.218730273966 6713.096974595503
          14328.167940617705 10859.380433917702 10859.380433918983 18635.944773521704 18635.94477351891 6536.630202367447
          14313.194541969411
        </DataArray>
        <DataArray type="Float64" Name="stress_xx" format="ascii" RangeMin="-17244.24267292807" RangeMax="16013.820545368522">
          7686.263673172482 965.519328099673 965.5193280978499 7686.26367317184 5204.739537930257 1099.201734167152
          1099.2017341672897 5204.739537929099 -1153.654397233677 92.80941562497924 -1153.6543972353593 5773.086919549556
          8747.173700086247 2733.511077092926 2733.511077091738 8747.173700086174 -296.72919476737525 461.06860779296767
          -296.7291947666341 3918.804361604166 -2026.3643097083002 490.47934382184286 2077.563004324017 490.47934382162634
          7131.549059751127 -934.8623211412579 -165.46872894658028 9610.987613195435 1414.7470158427914 1414.7470158446636
          9610.987613195857 -1284.6791541879402 259.53984496732437 -1284.679154186012 7128.527208008794 11962.032038525585
          3457.8257564806577 3457.8257564817964 11962.03203852415 -2439.8863250633794 864.9203621993768 2368.3540043019775
          864.9203621998254 9674.971380339251 -224.55138997964846 10708.072725769865 1592.8585110103468 1592.8585110095146
          10708.072725768887 -1382.027182091193 327.5001646746407 -1382.02718209266 7903.80956228819 13591.044224556672
          3825.7658948621065 3825.7658948607423 13591.044224556746 -2647.3855284272167 955.3917163437086 2604.8233052878677
          955.3917163431474 10937.119506231455 -265.55087323012896 11363.847866884962 1631.6995972249047 1631.6995972258646
          11363.847866883463 -1546.1116837426875 280.31430894365053 -1546.1116837425898 8361.27656464074 14726.912919463086
          4123.631118798127 4123.631118800753 14726.912919461429 -2897.4969720243726 1034.4113980362317 2813.857015702417
          1034.4113980367845 11849.568240373665 -275.3627050605154 12038.588547102278 1778.8753459712825 1778.875345969811
          12038.588547100464 -1472.3098187180126 365.64443292827355 -1472.3098187189044 8936.523496848135 15639.035510937922
          4454.465985978016 4454.465985976486 15639.035510936044 -2885.5407317607314 1146.0551874184994 3061.4695125108065
          1146.0551874173195 12594.719612788254 -246.94128604853498 12964.60294559126 1986.3205876143568 1986.3205876142358
          12964.602945590741 -1435.2264332324833 548.7282898913227 -1435.2264332324476 9719.4441847411 15744.77415906164
          4365.172571470934 4365.172571469742 15744.77415906002 -2872.8187309554396 1061.582744954018 2931.707218852236
          1061.5827449536357 12601.600083492529 -371.88260766427453 697.0332574716703 177.02061836438588 177.02061836440595
          697.0332574702486 -363.53292591512155 1275.1646760339609 1275.164676034437 -363.5329259174874 523.1675932062742
          140.79510556556872 523.1675932045318 404.58502795499373 801.9688043691829 480.21297387810404 480.21297387520775
          801.9688043659925 1030.9302859839397 1414.4617049569895 1030.9302859825505 -257.7143773300684 414.2662819407733
          830.1043508383895 536.2362266271426 830.1043508348412 888.6203052438459 981.7717086550131 737.8920302594798
          103.73794117518761 -228.83024319790042 -228.83024319402057 103.73794117607196 -0.2262682256543762 -253.1313519690285
          -0.22626822358971665 83.02488959882191 240.29904010129326 60.864048154294906 60.86404815924184 240.2990401004999
          -0.9987603731972587 250.38182782647024 40.44021990559443 250.38182782736862 226.81647698512165 230.30170012165595
          12.878309978328325 -177.36578253180227 -177.3657825386764 12.87830997718342 -25.76363054791226 -196.96904014643928
          -25.763630551991824 13.715698518168637 15.26885612028224 -157.0486216394577 -157.04862164486914 15.268856120069335
          -26.99291173488173 43.15184819118369 -178.74998070176184 43.15184818816614 17.914449812439607 48.33231819720568
          -530.2759487317072 -289.46475285044 219.91361622560166 -635.2471000242575 -42.37479023589768 -36.06145754667153
          313.8636368419516 -300.9376873075271 -441.9176761433795 -180.5729869348189 387.74582304494714 240.1900961925394
          296.8949104136105 -156.17792915086073 -22.35265326173362 348.9508589546863 587.1934876911396 369.58069537833046
          -20.26375729762122 -114.64335631522422 -19.560068899352586 -148.2608729011995 67.26952597384113 -141.13074078464393
          -96.57032886021129 1.8184499800634093 -38.474667824266504 9.943156121240719 83.08611578290407 133.57802620111957
          -22.045046338536338 -53.4986247373398 -9.176172954351415 -100.56421223842489 -1.4109305238021648 -29.85764481811981
          -45.2151472844157 -11.78889856858806 39.19776970466553 -85.21484234204755 -5.0260592686654775 43.65093653388213
          -53.498624742326164 -22.04504633618795 -114.64335631878161 -20.263757302171953 -9.176172956958226 -1.4109305221761872
          -100.56421224438554 -45.215147291125774 -29.857644820256453 -19.560068902049586 67.26952597274158 -148.26087289970926
          -11.788898571027232 39.19776969953366 -5.026059268569966 -85.21484234722632 1.818449982175352 43.6509365314235
          -289.4647528573924 -530.2759487305942 -96.57032886652804 -141.13074078635668 -42.3747902374383 313.8636368438883
          -36.06145754749191 -38.47466782648928 83.08611578230975 9.943156120243373 296.8949104162839 133.5780262025969
          -635.247100022853 219.9136162243215 -441.9176761499158 -300.937687309142 -180.5729869344296 240.19009619205949
          387.7458230503811 -156.1779291530191 348.95085895439695 -22.352653262597016 587.1934876931884 369.5806953796282
          1507.7699797930711 1507.7699797894177 -4800.428993942526 -4800.428993946272 763.9806697896265 763.9806697905549
          1422.3450134787277 226.98483249094778 226.98483248904108 -3761.1099897873573 -3761.109989789364 -4789.247884738974
          352.5166067649636 -91.70105100334808 -91.70105100344915 627.8331238714404 -3410.537797555337 22.172081775196215
          397.8890597387577 397.8890597403365 145.38996567829557 145.38996568110576 458.0572513239998 551.6524668884493
          551.6524668828993 116.4981750143477 208.77929040586613 208.77929040677938 588.6611357570105 182.9119256104192
          147.02266701258745 147.02266701169145 24.659258171012148 24.659258169677436 168.43652375065955 143.02913544769743
          143.02913545088478 14.619031869195126 -33.7038597624026 -33.70385976109434 174.3642205077919 -44.43406866771641
          -143.31218641881384 -71.96926304127851 -789.4780164680277 891.415261975789 161.2985851978815 -249.82753585584896
          -1574.6149864192007 359.4572403053086 -408.8072506082888 290.72834063226094 -1483.2757037771157 -10.179939717253975
          58.633667839431695 -44.92741198695777 217.2037120211362 1.706396660273299 83.70361620295319 -196.7268687566555
          294.1120841244267 54.89688000830915 54.60004895087205 1.8829097173045 92.22033087652518 38.02719501260658
          20.407098358559352 -58.448319663966586 76.97652396424672 -38.59508399672471 54.60004895237916 58.63366783874436
          1.8829097197514812 92.22033087573926 38.02719501423132 -44.92741198841162 217.20371202214272 20.407098358482614
          -58.44831966428264 76.976523966982 83.70361620351235 -38.59508399616092 -143.31218641790224 1.7063966573006724
          -789.4780164635454 891.4152619732154 -196.72686875497703 294.1120841198722 359.45724030772385 54.89688000927468
          -71.96926304167039 161.29858519880213 -249.8275358559689 -1574.6149864197064 -408.8072506066683 290.7283406306581
          -1483.2757037753818 -10.179939716189285 -416.2469840188697 366.81676481745274 366.81676481678716 -416.2469840175045
          -6215.843432163383 1953.927398089636 1953.9273980880694 -6215.843432156021 871.9937079666053 -71.63392902108978
          871.9937079657674 -255.81441553429957 -4707.127386447273 1062.9262297320706 1062.926229730976 -4707.127386440995
          262.65267789923496 1798.965168357901 262.6526778994239 -6251.438633453507 836.408025554767 -24.432628959335034
          524.3097338577495 -24.43262895926057 -4297.448777540905 759.454085615423 146.24797073165885 -241.36166035455676
          -241.3616603544949 477.92245751417204 477.92245751408075 116.03943221676298 -257.054059634532 116.03943221691382
          231.22956297324288 231.22956297311805 713.5176982407497 571.6930259641551 713.5176982408827 133.88752043773087
          355.7444909542817 197.77505387227234 355.7444909544422 756.7494450734354 321.86110715573056 -15.902138143344516
          -15.902138143575101 201.40556412982045 201.4055641297307 -111.38807252292773 61.00683941891518 -111.38807252305277
          150.19121905354706 150.1912190533256 138.17767150058006 230.77582005855675 138.17767150053203 -40.87266454518233
          -15.518686528878266 142.7932111245394 -15.518686528992927 180.23130485505942 -43.83043953952101 2.93971825241177
          -1003.6705122135284 -189.31862795914117 -223.13526738470063 -545.6915924186758 -13.336379150778441 92.0633893777574
          -204.35127353873986 -1003.8329152725115 58.75776621344346 1160.7523178273063 -2046.7226795002834 323.09737136311026
          -535.407803522083 516.7300427758928 -1745.1547896288464 299.92959538611433 22.364561101623647 -198.74501634716296
          54.56040474390167 -156.47339584239595 -198.71735419673695 -46.30362898059596 -32.70214123004155 243.43004210523213
          0.4357969496908538 -226.86063832878583 133.26411674798936 366.9171031195308 129.50881624254563 230.57305791219827
          68.08853264685513 55.64996558436165 66.28371725857527 4.350438402794255 37.64499617982386 120.0845127958419
          -65.72401130286413 -94.97798851004374 80.99242506453174 66.90710953484029 -41.0698686422766 230.5730579120766
          -198.74501634707758 68.08853264683279 54.56040474381962 55.649965584260634 -198.71735419659723 66.28371725845003
          4.350438402663306 -46.303628980531926 37.64499617976615 243.4300421050645 120.08451279581595 -65.72401130290024
          -94.97798851008004 133.2641167478737 80.99242506434979 66.9071095348269 -41.06986864231596 -1003.670512212144
          -223.13526738457455 -156.47339584237648 -13.336379150660365 -1003.8329152704064 -32.702141230158105 1160.7523178256506
          0.43579694975782957 -226.86063832857567 516.7300427757355 366.9171031194238 129.5088162426243 2.939718251173266
          -189.31862795660118 -545.6915924189664 92.06338937680464 -204.3512735365058 58.75776621234252 -2046.7226794944497
          323.09737136192086 -535.4078035216141 -1745.154789624139 299.9295953847373 22.364561100996017 -1113.3287936899362
          -1113.3287936891923 -3289.994250481625 -3289.9942504809433 -281.70370778672475 -1032.0899854962336 -281.70370778658224
          -1761.5777825541245 -1761.57778255353 -1082.1337934692997 -3243.4683870903586 -1082.133793469286 -363.9930550252815
          -279.31553461732767 -1635.303121887053 -279.3155346173377 -1196.2955705689733 -332.74104886910595 -1325.9631186323527
          -1325.9631186306049 291.50520899852324 -1550.3270089683106 291.50520899850636 -1019.946111643502 -1019.9461116423649
          154.26041956737004 -3.9918050844746773 -1009.5171229552416 -3.9918050843178996 -64.12543381633094 3457.487231190919
          3457.487231199937 2041.5763232825316 3030.362809856955 2041.5763232847896 -1362.8497973890494 -1362.8497973860735
          1815.381481242643 1304.6653851956116 -1862.4592195781897 1304.6653851956776 1140.1955015019812 -1156.2100436173962
          -2952.9678976187174 -7.1193777929621085 -1172.4831489232283 -1721.4294156205099 -351.54633382209136 -3149.961105806962
          -100.36119534337239 173.4064735284981 -1809.8580294819903 -664.9762751570811 -31.458873479726808 -1201.9967720902478
          8.976448939093785 -1197.9428425456874 -1159.7184118521423 172.71838133172312 1.7998948115665172 -1084.018308376236
          39.999306945061115 1628.598332964137 442.3540357754421 2804.981519986498 -1368.779906864196 1403.4391277903999
          249.84234314693228 -1219.3282734524648 756.1706735972127 1628.5983329816318 -1201.9967720861832 442.3540357797828
          2804.981520001883 -1368.7799068579839 8.976448939395354 -1197.9428425428296 1403.4391277934865 249.84234314751944
          -1219.328273447788 172.71838133152664 756.1706735970919 -1156.2100436160442 -1159.718411849269 -7.119377793047363
          -1172.4831489221133 1.7998948118170048 -1084.0183083741745 -100.36119534338464 39.99930694508954 -2952.967897617532
          -1721.4294156197598 -351.54633382204634 -3149.961105805746 173.40647352823373 -1809.85802948112 -664.9762751569747
          -31.458873479840886 -9581.987568273687 -9581.987568274468 -6339.437097966085 -6339.4370979671585 -4486.683010261049
          -10222.008732659404 -4486.683010262437 -4884.201500088168 -4884.201500088662 -2094.9600379514786 -7079.665605389186
          -2094.9600379522412 -5849.237997188043 -886.5662813537481 -5181.888122182814 -886.5662813549875 -2883.7257221650316
          -1704.3852394127025 -12646.73213372167 -12646.732133724636 -5678.18776565193 -13756.261779163277 -5678.187765654326
          -7589.124252430066 -7589.12425243244 -7473.547969157 -1505.2459588554234 -7901.352572525169 -1505.2459588565475
          -2585.915180469059 -14192.200386035885 -14192.200386037392 -6322.356259600903 -15387.915321853594 -6322.3562596027405
          -9554.807561732883 -9554.807561733713 -8299.812490735181 -2109.3483568355496 -10076.478942534766 -2109.3483568371885
          -3401.4198427479014 -15370.323420873763 -15370.323420873206 -6927.714696600782 -16700.105028586084 -6927.714696600549
          -10532.553665599375 -10532.553665599939 -9060.242292754643 -2396.494362008206 -11109.770830334417 -2396.4943620089844
          -3796.363564018007 -15731.282027262108 -15731.282027262569 -7014.744167018399 -16931.844133040446 -7014.7441670182125
          -11101.942408152785 -11101.942408151841 -9125.994953563444 -2484.840623611025 -11654.374317456155 -2484.84062360995
          -3899.694840696779 -15212.744787875235 -15212.744787876902 -6220.628298453999 -16345.27806179244 -6220.628298454674
          -11884.101338223247 -11884.101338224937 -8242.425538330695 -3087.0699430330565 -12643.445914254553 -3087.0699430337136
          -4767.401983715908 4581.683564328935 326.49976992973234 2794.146345916392 458.2415999968391 -3887.4793360025405
          -1519.0067882346232 3775.865602714168 6338.358247654611 2399.6911805178006 -2456.459728477021 -449.6344676146973
          2744.430575940255 -4028.905322008143 -502.1431373520136 932.2973757919148 5483.018222071433 -1931.8430168396958
          -946.2897959345806 5812.2638186198965 595.8039195656488 -5069.93771654369 -1620.5430752625293 4800.784204418391
          8548.283406474076 3445.402862187504 -4959.153700417952 -1400.9172731954786 1487.3735618971668 7409.431222189514
          -1505.2125979366053 6708.4237950300385 773.5372511222017 -5626.284625080044 -1631.2971334820243 5430.135181274939
          9716.295037808286 3905.1130896526856 -5470.352378460697 -2036.7463247207834 1671.0197474535044 8413.206327484708
          -1951.4543148950186 7170.619608733811 723.1103565051742 -6094.171680268411 -1836.8538027924378 5711.147191742881
          10590.21022218659 4274.4186972663065 -5975.231029674697 -2268.744981150523 1827.4434628871418 9136.94159409374
          -2170.772690367699 7826.366234745041 1098.54209073053 -6138.4234510273545 -1590.4231242769172 6177.7683049911675
          11349.16986245727 4664.994898444587 -6033.204860032796 -2332.40963249398 2044.5158064663724 9767.59355180865
          -2244.974614327221 8188.389808561229 1524.5825470774837 -5796.937243106949 -1310.9032085629656 6919.928967915692
          11313.071725180296 4427.778141453515 -5605.893523977949 -2746.096419523533 1727.2369332720568 9672.463648500443
          -2680.004385556393 1524.582547078534 8188.3898085596675 1098.5420907303062 7826.3662347429 -1310.9032085626632
          -5796.937243106895 6919.928967915547 4427.778141454251 11313.071725177615 -1590.423124276372 -6138.423451027932
          6177.768304989799 -5605.893523977438 1727.2369332733497 -2746.096419524708 9672.463648499212 -6033.204860032042
          -2680.0043855553317 723.1103565049984 7170.619608731295 4664.994898444273 11349.169862456003 -1836.853802791829
          -6094.171680268546 5711.147191743001 2044.5158064667735 -2332.409632494341 9767.593551807293 -5975.231029672748
          -2244.9746143268894 773.5372511220264 6708.42379502822 4274.418697262607 10590.210222181433 -1631.297133480431
          -5626.284625081301 5430.135181272846 1827.4434628854328 -2268.744981151116 9136.941594092381 -5470.352378459782
          -2170.772690365955 595.8039195653346 5812.263818617966 3905.113089654601 9716.295037806925 -1620.543075261468
          -5069.937716544084 4800.784204416371 1671.0197474562412 -2036.7463247242613 8413.206327481774 -4959.153700416974
          -1951.454314895765 326.49976993015616 4581.683564322479 3445.402862185442 8548.283406469252 -1519.0067882354506
          -3887.479336005539 3775.8656027143297 1487.3735618956332 -1400.9172731967183 7409.431222187283 -4028.905322007373
          -1505.2125979364316 458.2415999945424 2794.146345912638 2399.691180516653 6338.358247649337 -449.6344676148617
          -2456.45972847767 2744.430575936737 932.2973757911736 -502.14313735357473 5483.018222070311 -1931.8430168389189
          -946.2897959334534 143.6401977609798 -36.8079157029948 -36.80791570220382 143.640197760538 -778.6673219637624
          9.100214512576315 -778.6673219648367 923.0246119112181 -2120.5738032112854 13.496288462201278 13.496288461788405
          -2120.573803207859 0.7170921861599666 -1507.5565606049647 828.8994244949573 -1507.556560602683 -655.2976590490662
          -42.28041644331793 -35.18809026891779 -49.65427562960023 -49.654275629629666 -35.18809026907661 -14.480679961851138
          5.847008155724556 -14.480679962183938 13.916813439146214 -104.917507326482 -226.71117089158338 -226.71117089150366
          -104.91750732604046 34.62422374612588 -105.68627852384795 -149.29460346703786 -105.68627852352671 -11.42482318584836
          -12.193594383274451 5.387753751921184 -30.419934819991678 -30.419934820148423 5.387753752391297 -13.389641560855038
          -39.43796542601929 -13.389641560636147 17.177762583884462 -9.776069477243833 -67.80412686981055 -67.80412687009299
          -9.776069477026127 -1.5996327290173697 0.038441424847875716 -48.97227987738867 0.03844142483791746 -5.058946201261026
          4.75556470071685 198.82894530639126 323.1871823282746 323.18718232825205 198.8289453064809 -33.24692069596999
          126.50351540359298 -33.24692069610885 171.87085518519964 0.45153428971608633 58.52434134357057 58.52434134336223
          0.4515342900808541 -60.205010817275884 -23.851304485840206 32.468130841877574 -23.85130448575022 19.31442867748096
          -4.98841009821272 940.9066434939361 2313.8228741127127 2313.822874112752 940.9066434945967 207.21576209752808
          1544.1897046819581 207.21576209786292 568.2283209704528 209.75988521660742 961.7245097917421 961.7245097917312
          209.75988521698093 -165.46256042611822 -26.236601936803766 644.7748556037893 -26.23660193661246 136.98081058673876
          -99.01567656676353 1165.4781244646142 5594.910621072307 5594.910621072128 1165.4781244648111 -331.0584205335738
          4213.707666740594 -331.0584205337866 478.54509685530076 826.3641688250757 3741.1930294482286 3741.193029448074
          826.3641688256771 -1017.9914481430923 210.67022754356043 2649.7799310290357 210.67022754369276 153.78659840780438
          -461.9073428739454 -940.2284524836787 87.40443309642836 87.40443309774915 -940.2284524815233 -627.4669570801434
          713.5928547065773 -627.4669570783435 -634.8540956483761 -379.8559140147902 -1635.6895818671915 -1635.6895818688845
          -379.8559140130364 -1.2785354697548286 -1216.5778641051636 -484.18063426624707 -1216.5778641048207 250.48867478191835
          -65.06891650320134 -237.18553908342037 -79.62524121402402 -79.62524120806691 -237.18553908218405 -19.216810745633705
          -24.598418794128534 -19.21681074079326 -118.59029457026905 -422.14200618846013 -120.87862518280102 -120.87862517887501
          -422.14200618858376 35.81001167370345 -92.16123172096357 -20.010729563651637 -92.16123171811509 -282.62521498025205
          8.706663897647047 -64.91215575473215 -8.847140305136465 -8.847140304934749 -64.912155754319 -11.262269939634265
          4.1262113031439975 -11.262269939277576 -53.392681548547856 -134.2177634354949 -21.601417520297375 -21.601417518423673
          -134.21776343488713 1.7110816687236845 0.810625233073381 -12.415668302713037 0.8106252337913382 -91.87506225306149
          9.996374450079847 289.6456653019505 180.84475072175917 180.84475072098263 289.64566530216035 -30.146968380830558
          156.21929091388273 -30.146968380799972 113.68924505560595 39.78678721780764 -1.011793380708692 -1.011793381770298
          39.786787218645635 -54.772428188303394 -20.53581133976304 15.749160618472228 -20.535811339358954 20.996751648434923
          -3.774857339849273 2126.475216991684 876.5381411120179 876.5381411111182 2126.4752169901394 187.5864306422269
          533.3731143141283 187.58643064151943 1416.1696472128074 877.5055415570533 192.39031617341442 192.39031617266696
          877.5055415566421 -155.5785961555665 -25.307311247778813 126.37844255835267 -25.307311248377744 588.1770108499036
          -91.31918486276629 3463.323162518473 769.8628750730629 769.8628750731489 3463.3231625173116 188.2053081678689
          149.54469509291448 188.20530816819098 2452.318776113032 -432.1128718121615 1550.1295813948675 85.22926700270801
          -350.7758305562434 330.4835551246689 985.4274370499265 -181.34869815159635 -446.8514686679289 1561.3650011357934
          -687.2590345550198 -113.0239558199674 220.7125678161702 493.8567864224956 646.387643181904 -546.0157507276126
          -12.670275151118403 170.98442847527377 442.15761360170734 -164.75834702474418 -5.322007303807027 70.94079552578836
          179.79701783794337 -46.672393763679835 -153.4726850950962 857.313158228319 -210.69069662819248 -23.85169768238343
          51.52994977201939 179.22238320931882 353.83778797057397 -68.5477743648262 -218.57783233335036 116.35340060907357
          117.02303355371417 -12.464556625554252 -23.39856280550844 24.64357336025351 55.66988674145121 -14.374348681752448
          -36.16018805805098 237.77539401963557 -61.71374710447882 -13.867421370590343 13.31206037547901 37.20545420124093
          90.74270115050507 -9.77844022680476 -87.56843917382656 29.599274999069063 -379.4396210189469 342.0768682640467
          -127.95409239823532 -7.790444420102212 -62.18728201761399 -13.2944457699015 174.08088940841373 -60.90446231710169
          5.137471412940101 3.0458187097161264 -64.40903000740732 7.409716826678938 -11.854901137400823 -16.806076881843893
          50.41877497849933 -1.6157850226227526 -2643.938121015246 1318.9731951344827 135.53148017915947 -226.83355416150468
          -832.0499469960148 259.88059350143226 1233.50564278411 -1354.0228040010365 371.3430713123948 125.50583273608852
          -266.6438962613413 -147.31702092854823 -487.216549953505 28.610506561799284 615.1791468276843 -155.8326470253527
          -5139.278111106937 1495.435372591353 458.49214008683566 -934.7220619262907 -2180.857884034353 262.03421349075893
          1931.9605575745304 -839.3782060782466 1550.129581394622 330.48355512443186 1596.4951934534643 1561.3650011378736
          420.05491422785883 493.85678642299945 1719.4152308704204 676.4485146871407 442.1576136035336 70.94079552589497
          477.6886873066565 857.3131582278327 109.87514054807386 179.2223832074756 983.2637698887479 244.1939168376329
          117.02303355284856 24.6435733596988 136.29767624615113 237.77539401889726 34.34461653542219 37.205454200896135
          280.7995982403175 53.88187778424178 -379.43962101803425 -7.790444420257095 -433.2449845121993 -60.90446231713674
          -40.87444936833508 7.409716826755691 -89.29773205782834 4.908845706117562 -2643.938121016765 -226.8335541630065
          -3177.244677266798 -1354.0228039998483 -532.9402466616439 -147.31702092920165 -1647.5677052205244 -239.65650968209962
          -5139.27811110537 -934.7220619248926 -5880.989861840618 -1388.23827849234 135.53148018030112 1318.9731951291656
          458.4921400867669 1495.4353725877008 259.88059349991886 -832.0499469988856 1233.505642783789 262.0342134921507
          -2180.857884034558 1931.9605575729447 -266.6438962623628 -839.3782060758898 -127.9540923978236 342.07686826596404
          125.50583273786967 371.34307131302035 -13.294445769855574 -62.18728201621504 174.08088940697044 28.61050656089897
          -487.2165499504241 615.1791468290668 -64.40903000854809 -155.83264702522467 -23.398562805494258 -12.464556621120792
          3.045818710080365 5.137471415850321 -14.37434868013631 55.669886742482014 -36.16018805889261 -16.8060768803402
          -11.854901136443114 50.418774977091665 13.312060374965917 -1.6157850229812674 -5.322007306620492 -164.7583470194859
          -13.86742137311796 -61.71374710024793 -46.67239376406302 179.79701784296086 -153.47268509663428 -9.778440227034968
          90.74270115089433 -87.56843917528275 51.529949772153515 29.599274997453765 -350.77583054896036 85.22926700471908
          -23.851697678384156 -210.69069662471162 -181.3486981492711 985.4274370508745 -446.8514686651729 -68.54777436321544
          353.83778797370024 -218.57783233158634 220.71256781570037 116.35340060938944 -113.02395581882547 -687.2590345521012
          -546.0157507280967 646.3876431865848 -12.670275153261287 170.98442847402833 1673.694486982791 1027.6867397023389
          79.789263881566 192.13366650981976 961.4661253706533 -381.87523710023174 977.8825518205877 4566.868818933562
          -73.11329923320807 1293.912006826073 34.061099703436085 514.1429791573079 87.49761756481644 -1162.7296469235084
          3029.468697730811 -214.64584307212718 197.5119608866708 36.95424719443203 -79.33703528940538 23.766233433723084
          -10.57706095016831 -66.83975553232614 96.3694089559237 600.2488509630285 13.279960103034497 101.1335841296939
          -2.7521874819617373 75.0505846460037 -92.97174462684269 -40.8907049480638 348.56390983451774 29.698605539409503
          64.60141281746873 -34.38363275854325 24.718424283111972 19.738536274041284 -13.22024826612602 -15.364174629304106
          43.256625904061266 102.47884362420285 -4.102137775453739 -9.275770738456584 4.486618427379155 7.192598272918591
          -43.39693340137304 0.11179983779396352 44.22290798078202 7.213741384453612 -427.7752082942324 -140.9654819883781
          382.0643297373359 -11.550013517442284 195.259692380052 -14.385299000622913 -71.82642348447754 -95.21490453668267
          5.644127726972432 13.984098972699574 -73.21808842731465 3.4768733835614754 67.07940895742806 -18.049781528090072
          -22.624459884938567 -5.636420341681327 -2897.2692036116755 163.15419695544995 1436.567718567822 -263.6720256279099
          1345.4082626506474 287.88755773276074 -914.3989995070203 -1492.8930683592007 140.7291292177992 411.159709562408
          -296.46876845706186 -167.51439897434545 674.1678603431922 33.93886851782595 -537.5895744045924 -173.71640790297786
          -6851.016044997377 518.7259845494244 3048.222372247533 -2323.404540452273 2950.187683830786 -486.7014053842022
          -2655.6219118888107 -5598.268973777102 514.6108350061647 1631.7235713218365 -2122.8926978116933 -1048.1109854194394
          2087.896759367469 291.2259539785272 -2379.2440567645463 -927.6148978840123 1673.6944869816757 192.1336665089611
          1715.898407230608 4566.868818936716 178.75516953660252 514.1429791558999 4768.854623038962 694.9903713415939
          197.51196088688278 23.766233433753936 176.39163896981154 600.2488509626987 39.64065669670043 75.05058464559774
          693.3316386301203 138.64142550854757 64.6014128179424 19.738536274181534 75.94499911264052 102.4788436245955
          23.67666206663476 7.192598272853601 125.29506910029144 18.1284821664805 -427.77520829386253 -11.550013517042842
          -487.9447991899007 -95.21490453631355 -49.16070848860946 3.476873383770604 -132.18175687725514 -0.8081606241192041
          -2897.2692036113267 -263.67202562761025 -3481.921251746023 -1492.8930683592152 -599.2675187134873 -167.51439897421875
          -1814.685430415899 -268.8952656939605 -6851.016044996588 -2323.4045404522235 -7631.300012983379 -5598.2689737765795
          -3176.459209679182 -1048.1109854191575 -6396.585234843228 -1540.0251932323545 3048.222372248243 518.7259845491253
          1436.5677185672587 163.15419695474748 -486.70140538473106 2950.1876838303906 -2655.6219118880367 1631.7235713212654
          514.6108350057042 287.8875577323242 1345.4082626503564 -914.3989995069817 -2122.8926978122386 291.2259539781153
          2087.896759367167 -2379.2440567644653 -296.4687684569916 -927.6148978840188 382.0643297365723 -140.96548198894135
          411.15970956173715 140.7291292167331 -14.385299001007176 195.25969237984464 -71.82642348457384 33.938868517246604
          674.1678603426334 -537.5895744048681 -73.2180884271873 -173.71640790310596 24.718424282809124 -34.38363275868436
          13.984098971659908 5.644127726417317 -15.364174629500347 -13.22024826636472 43.256625904236316 -18.0497815286182
          67.07940895688725 -22.62445988522887 4.486618427373077 -5.636420341827621 -79.33703528933941 36.954247194498876
          -9.275770738639562 -4.10213777560075 -66.83975553261921 -10.577060949988194 96.36940895597449 0.11179983741121102
          -43.3969334016193 44.2229079809157 -2.752187482205784 7.2137413841795635 79.78926388152252 1027.6867397084363
          101.1335841302951 13.279960102915105 -381.8752370998468 961.4661253766124 977.8825518191846 -40.89070494832417
          -92.97174462700616 348.56390983440195 34.06109970307229 29.69860553876863 1293.9120068327995 -73.11329923408499
          -1162.729646925366 87.49761756353337 3029.4686977353617 -214.64584307527576 -10298.127979747203 8236.332359566039
          384.59784840497764 4947.644250161631 -4903.634680504139 4042.10767506086 -1644.6468818346793 -4186.748738829977
          -5188.628028116083 9441.131998623116 2644.6182889606753 6923.129519962864 -4383.088463002542 -994.3386736290604
          5927.167431840399 1025.4639860818802 -480.6797515451349 -1035.1660782322574 -13477.202366812664 10208.707220322205
          668.7579389580676 6202.438169078461 -6106.628656170533 5099.5792426223625 -1723.3709523797388 -5410.263967435026
          -8095.515905316693 12811.962090773595 3735.487136642206 9218.681115491172 -5314.311368804336 -1655.1443626076898
          7939.415510454094 1613.9581822106109 -1474.8377276041983 -1630.8370524311301 -14902.79374392842 11215.521764923566
          837.4043174363576 7054.13620698057 -6676.263317676025 5689.626559712423 -1705.5448277510577 -5910.88913681706
          -10097.751829560886 14358.26611058839 4159.82911549307 10312.033486619512 -5761.94637851184 -2270.802499569141
          8891.466165404983 1781.1192321163628 -2145.9291269168807 -2082.0435496958776 -15878.126061902916 11722.370433457218
          764.7177581935373 7417.250321116868 -7180.274187247504 5893.586406121414 -1891.1779123642616 -6296.498057530176
          -10966.262239643836 15318.98396551213 4470.934572755217 11049.426895001681 -6183.6177777238445 -2525.1358751071793
          9507.478185847322 1912.362622899336 -2358.925000605296 -2273.5415183581013 -15995.087436463502 12222.162556813075
          1119.5535837186758 7952.436386578893 -7146.688673517476 6271.602627723269 -1618.0532977410198 -6244.430488272904
          -11372.933061203 16013.820545368522 4791.507240424595 11641.30567105692 -6140.462213164622 -2563.7131360873095
          10003.143052548348 2099.9006626809432 -2387.397061270085 -2308.6327974206815 -11981.296320679416 15867.184646267458
          4465.698297321189 11406.61437772242 -3116.697045810278 9748.06219665382 1744.565564802011 -2768.515016206965
          -2701.817182496367 -10298.127979746958 8236.332359567074 -4903.634680504068 6196.413098028077 -10959.700670052674
          -5188.628028114928 9441.131998623467 -6370.325755217471 -994.3386736288913 7712.5908352301385 -5479.976299066486
          -1880.0904705991852 -13477.202366813044 10208.707220323367 -6106.628656170384 7579.407683077642 -14643.887762921964
          -8095.515905316645 12811.962090775298 -8020.454660356791 -1655.144362607255 10373.966688446584 -8404.63885080598
          -2816.6200490141546 -14902.793743928925 11215.521764924719 -6676.263317675837 8281.977129235336 -16147.430042521992
          -10097.751829561308 14358.266110589631 -8751.935741358944 -2270.8024995687965 11561.246315280614 -10634.546574286298
          -3639.3333232475084 -15878.126061902447 11722.370433456977 -7180.274187247244 8627.010152163723 -17244.24267292807
          -10966.262239643922 15318.98396551267 -9382.72771671073 -2525.1358751068856 12330.304057430149 -11557.826998017117
          -3983.40550554034 -15995.087436462836 12222.162556812807 -7146.688673517485 9072.851273436214 -17212.623667429772
          -11372.933061202353 16013.82054536803 -9294.252376073862 -2563.7131360872218 12898.866435090591 -11933.660884465924
          -4014.154570308902 -11981.296320678863 15867.18464626726 -3116.6970458105425 12702.905420195813 -12742.545990819057
          -4808.791921422139 7952.436386577751 1119.5535837197579 11406.614377720722 4465.698297321829 -1618.0532977416688
          6271.602627724131 -6244.4304882717515 1744.5655648003294 9748.062196654668 -2768.515016206312 -6140.462213164234
          -2701.8171824967676 7417.25032111772 764.7177581943931 11641.305671055601 4791.507240425276 -1891.1779123637245
          5893.5864061211805 -6296.498057529692 2099.900662680537 10003.143052547272 -2387.397061270284 -6183.617777724037
          -2308.632797421407 7054.136206980817 837.4043174360313 11049.42689500326 4470.934572755738 -1705.544827751672
          5689.626559712601 -5910.889136817901 1912.3626228998378 9507.478185847587 -2358.9250006054117 -5761.9463785127455
          -2273.5415183585746 6202.4381690800665 668.7579389584469 10312.033486620465 4159.829115492965 -1723.3709523798125
          5099.5792426226435 -5410.263967435278 1781.119232116185 8891.466165405465 -2145.92912691709 -5314.311368805387
          -2082.0435496963414 4947.6442501638185 384.5978484066036 9218.681115494424 3735.4871366444663 -1644.6468818343249
          4042.1076750615794 -4186.748738829666 1613.9581822118353 7939.415510455131 -1474.8377276039364 -4383.08846300358
          -1630.8370524320135 6923.129519964998 2644.6182889616853 1025.4639860818804 5927.167431840933 -480.6797515436501
          -1035.1660782328195 993.2541155721013 993.2541155722537 -1253.8927248032082 -1253.8927248030284 61.287173026197365
          2947.626957590264 2947.6269575905094 -2185.8596673490983 543.9022934119197 543.9022934118149 2246.3384727891344
          -157.38619138938498 1471.0289019886402 1471.0289019877594 -1371.9972477443112 -1371.9972477447523 246.57228670768973
          3691.3784604330754 3691.3784604326634 -2596.4538630250418 941.7442823367574 941.744282336751 2528.733060142162
          -220.90111795395342 1646.2869413396963 1646.2869413399246 -1452.1183696424164 -1452.1183696420308 323.2817423071858
          4030.4037189514406 4030.403718950796 -2775.1235686748487 1019.8601493738846 1019.8601493737126 2744.1358886808057
          -266.4076808965139 1670.2279716651897 1670.227971664177 -1596.8788977958675 -1596.8788977971021 277.8290149693353
          4281.904851377516 4281.904851377018 -2989.277854491833 1083.4771718468028 1083.477171846146 2922.16228358233
          -276.2653959484629 1796.3865146107216 1796.386514610823 -1497.9647778204126 -1497.9647778207006 362.9992203989698
          4555.865589189376 4555.865589189242 -2931.3520720323595 1177.1758434870003 1177.1758434865828 3130.81024359355
          -247.87950210896767 4395.294695360781 4395.29469536103 1071.119506321126 1071.119506320879 2953.5754525330594
          -370.5997365068438
        </DataArray>
        <DataArray type="Float64" Name="stress_yy" format="ascii" RangeMin="-148592.77243055915" RangeMax="145332.8047225554">
          23098.934783445166 -1471.4447501422667 -1471.4447501466286 23098.934783440305 11620.156834470987 3377.2089953486875
          3377.208995346986 11620.156834464184 7802.4838290844355 -4014.3287983995488 7802.483829079672 24238.52580075733
          20235.244217286618 4865.860048146922 4865.860048144801 20235.244217279174 5816.630938781258 1823.912414941116
          5816.6309387773745 11671.087974938653 5259.599780826952 10219.024587052047 2738.232063466625 10219.024587047734
          21158.447431593504 4263.3343583725955 8091.396602370653 24917.368819163497 -24195.306230134163 -24195.306230137823
          24917.368819167565 -4220.668820319051 -27051.479847537405 -4220.6688203160675 26491.526943087556 28245.304712504836
          -7610.342995622209 -7610.342995624421 28245.304712501984 -7076.842437718971 7103.9556884198455 -10568.48310745428
          7103.9556884190215 29910.60942081621 4145.8155765884685 19953.897707469478 -61051.30429633541 -61051.304296343296
          19953.89770748114 -27656.526861263694 -63471.71381652495 -27656.526861257204 21808.197312295884 28283.029401604323
          -36247.30729683658 -36247.307296844425 28283.029401613676 -30076.936381446045 -9456.221075268159 -39001.51441981236
          -9456.221075264091 30250.895049712373 -12210.428198237983 10947.185016150317 -102349.91469448392 -102349.91469449026
          10947.185016165473 -55665.5106055529 -104073.19917911552 -55665.51060554123 12894.640735784677 23808.5917311794
          -73750.98199604428 -73750.98199605054 23808.591731193592 -57388.79509017549 -33764.53240134554 -75837.59391344675
          -33764.53240133493 25831.001954348125 -35851.14431873957 4368.377237801435 -134718.21159599867 -134718.21159600717
          4368.377237809509 -77562.7231289524 -135803.20292265245 -77562.72312894672 6384.881836133952 18078.7280496955
          -109197.93813743132 -109197.9381374423 18078.728049709007 -78647.7144555991 -57633.44878325169 -110557.89518929432
          -57633.448783243526 19950.82485230945 -58993.40583510511 48.15958225422795 -147795.8263150027 -147795.82631500746
          48.1595822483705 -87572.5954619224 -148592.77243055915 -87572.5954619277 1896.3916431089692 12784.059131224969
          -132074.18039809546 -132074.18039810477 12784.059131226555 -88369.54157747916 -73678.60064617835 -132884.20599954168
          -73678.60064617841 14461.749111985195 -74488.62624761995 -1341.4741329994963 -2089.469280486654 -2089.469280487304
          -1341.4741330029651 -309.2822705307998 -1126.8884632734007 -1126.8884632747456 -309.28227053378754 -1540.8862332599465
          -2481.7983568243553 -1540.886233264256 -1357.5097286331584 -816.0726351217196 -2545.354246773907 -2545.3542467793905
          -816.0726351275089 -378.6018017146707 -1321.3636153673856 -378.60180171768184 -1435.2670281137434 -1817.4882590026405
          -1561.5883687028481 -2626.414037930758 -1561.5883687096969 -1271.9332311729963 -1165.978588086442 -1821.1144107215146
          -1378.0002993098547 -2247.2174758498504 -2247.2174758425745 -1378.0002993090807 -1779.7067452234603 -2257.838320267374
          -1779.7067452208175 -1382.4148835167182 -1391.1673383575317 -2180.817999665652 -2180.817999657928 -1391.1673383590519
          -1781.644769030513 -1716.4664755701012 -2214.8719119612224 -1716.4664755692315 -1467.2290708259434 -1762.2809249862912
          -1155.096467231202 -2229.013890696937 -2229.0138907078335 -1155.0964672372254 -1707.539654391615 -2220.0874936890236
          -1707.5396544005296 -1157.5346231835563 -1308.9053913827324 -2155.9045922881924 -2155.9045922984637 -1308.9053913874966
          -1696.6855618013828 -1657.220035477883 -2157.4751765964643 -1657.220035487007 -1314.160015339212 -1655.7111709422988
          -1737.23750492161 -2550.5086440839386 3673.7086202649784 -345.94327869398927 -2023.0893543300604 -2038.1200460620666
          -1422.4503363693184 224.76165843545846 -2995.9260832309983 1663.5246274952342 -351.90903614922166 2896.653065309154
          -1557.9824028715427 -1541.7062342601994 -2621.0697568679193 103.79350309271297 1323.4190648646943 -1312.8437679167928
          -1519.5457558560506 -2268.6468753345557 -1880.6690236408435 -2211.1011603923107 -1419.3183001591526 -1564.2867547739152
          -2269.4416590347837 -1787.6982795396361 -1896.1907316121803 -2145.7346296478904 -1393.4395041921566 -1721.0531353323238
          -1206.667260333751 -2223.1679954793935 -1742.4604376072386 -2209.881199166275 -1171.4245913070724 -1363.2356575516214
          -2164.7755873194374 -1709.7541498691576 -1708.0094622038323 -2138.881855223802 -1325.2050179894204 -1662.6962386832345
          -2223.1679954864485 -1206.6672603267054 -2268.6468753397708 -1519.5457558605353 -1742.4604376054542 -1171.424591304438
          -2209.881199173834 -2164.775587334806 -1363.2356575540673 -1880.6690236439981 -1419.3183001594618 -2211.101160388448
          -1709.7541498693918 -1708.009462212031 -1325.205017990852 -2138.881855234952 -1787.6982795350946 -1662.6962386887296
          -2550.5086440902605 -1737.2375049192706 -2269.4416590434453 -1564.286754775621 -2023.0893543305392 -1422.450336366739
          -2038.1200460617792 -1896.1907316167726 -1393.4395041930504 -2145.7346296492296 -1557.9824028674625 -1721.0531353308427
          -345.94327869417793 3673.708620264844 -2995.926083240731 224.76165843240915 1663.5246274940487 2896.6530653109803
          -351.90903614238965 -1541.7062342641193 103.79350309215926 -2621.069756869123 1323.4190648672693 -1312.8437679150354
          888.4182020959346 888.4182020911563 -1058.437624150594 -1058.4376241555149 -670.3528675267247 -670.3528675260022
          542.3107956361532 744.7342059364541 744.7342059327464 -1781.8462316549585 -1781.8462316584366 -230.45859936703448
          -782.1637428793088 -600.7493856486531 -600.7493856503693 828.884996337772 -1573.5114959386137 -790.9233897745105
          349.5925489128493 349.5925489159345 -599.621223091226 -599.62122308524 345.65856725077816 294.1775597385237
          294.1775597318874 -617.3055687700582 -710.5448411235704 -710.5448411220434 260.8105601208163 -785.4357585426999
          461.3388131950721 461.3388131881626 -343.9010042906058 -343.9010042946419 466.0714870778447 207.35726135069956
          207.35726135236217 -355.2912834560284 -638.4656740736821 -638.4656740716507 212.46608776694714 -648.387607579937
          655.2377033600457 -18.350395395223416 -927.8639854824372 1076.9526474541708 875.2571407352293 948.9945039105355
          -549.5613959768662 -611.1319973306645 255.56327235219857 1001.917152400138 192.05103899182615 156.49081968004032
          293.8490283490786 -670.8604890050528 336.662057114114 220.64831063878358 -613.4244055557225 -774.0832773220424
          304.24154372475687 -674.7234917837068 465.4121423456943 -350.66383592526876 456.8125874035526 225.11642739188923
          -345.7838339511831 -632.6348619434704 209.4858777382756 -634.7858546808566 465.4121423450224 293.8490283485163
          -350.6638359199201 456.81258739581534 225.1164273939067 -670.8604890039232 336.6620571150243 -345.78383395201104
          -632.6348619404417 209.4858777393565 -613.424405552838 -634.7858546778758 655.2377033605258 220.64831063371963
          -927.8639854773469 1076.9526474515674 -774.083277319273 304.24154371714036 -611.1319973281309 -674.7234917838141
          -18.350395392072812 875.2571407351298 948.9945039121383 -549.5613959715854 255.563272351793 1001.9171523994493
          192.05103899693592 156.4908196804227 382.9353883425919 -2571.077273240757 -2571.0772732380747 382.93538835073366
          -1450.32822033574 979.7737866664775 979.7737866653456 -1450.3282203312676 -1353.6531583975934 -2621.6591708668575
          -1353.6531583937322 -1058.8190586789979 -1759.9519619175971 -834.821707099023 -834.8217070980701 -1759.9519619110506
          703.2085501093936 485.50937400811085 703.2085501095621 -605.4950343110835 -2111.2174834586067 -645.0759256382319
          -1031.3121228654156 -645.0759256358737 -1636.4195843766738 783.8754857427093 -907.0646604183564 -2087.429353140683
          -2087.429353139641 302.6079936531893 302.60799365300096 -1811.9849899841695 -2030.5483545454003 -1811.9849899825404
          -732.7045363242001 -732.7045363238078 256.296054822883 286.6679652968764 256.2960548228005 -1830.3769226896786
          -817.7000760629451 -769.0606428328081 -817.700076062172 189.2300305574456 -928.9349250523118 -2198.8353874884706
          -2198.835387488137 866.1135451482264 866.1135451478223 -1965.7422699279841 -2116.1564454697673 -1965.7422699275035
          -359.5621766103228 -359.56217661045 241.25362058962918 863.9702389489131 241.25362058951373 -1892.080439004201
          -910.0519062437112 -400.9844206170993 -910.0519062434544 233.10094223391528 -950.9908261644846 5097.977871857055
          -2810.218606292291 97.0876208955782 530.5452334687336 77.86025340838842 -2556.9539839767313 4118.049189239694
          1927.3974245500326 -1196.808731199268 703.1195765687228 1191.073758985524 -487.76397626307096 -88.85846600429602
          394.82269950149805 -728.7879686768633 993.8798632584023 995.8269833940776 338.864142193872 -1791.1146258883798
          202.8548074472141 -1637.8566165876273 -1955.6852483610671 -736.3966231903427 94.72594380979031 278.71511081615097
          -1669.1746469389973 -862.4022386401238 -698.3588304150337 253.61170875508594 -739.8660355506187 -1656.4676117144459
          804.1532722035516 -1469.7997076426564 -1991.4866797026461 -303.65259308444416 224.07448717150265 827.6647566450894
          -1777.097613339027 -815.853879433688 -319.43656797437166 228.2000879280237 -851.0237380086322 -1656.4676117134136
          -1791.1146258861168 804.153272202958 202.8548074469085 -1469.7997076411448 -1955.6852483593261 -1991.4866797019536
          -303.652593084291 -736.3966231893418 224.07448717132456 278.71511081586 827.664756644569 -1777.0976133379895
          -815.8538794329285 -698.3588304143725 -319.4365679744014 228.20008792788562 -851.0237380080888 -2810.2186062866936
          530.5452334685859 -1637.8566165844436 -2556.9539839726926 -1196.8087311957777 94.72594380956195 1191.0737589840462
          -1669.174646936684 -862.4022386385436 -728.7879686751385 253.6117087548318 -739.8660355495167 5097.977871859807
          97.0876208932358 77.8602534115621 4118.0491892425825 1927.3974245489833 703.119576567109 -487.7639762627996
          -88.85846600174762 394.82269950310297 993.8798632595485 995.8269833924778 338.86414219507253 -1720.8277309142263
          -1720.8277309131545 -7128.469137689671 -7128.4691376876335 -1782.9579015024096 -1780.555899480616 -1782.9579015014083
          -3250.2332269455915 -3250.2332269443605 -4653.024756244162 -7179.085237605383 -4653.024756242947 -1821.59547824964
          -2242.7539159575463 -3302.244203034823 -2242.753915956826 -4661.088643686793 -2264.0203627460605 -1680.1038593246185
          -1680.1038593234478 -1383.9213755450041 -2260.7189264468566 -1383.9213755429926 -1919.1896709876073 -1919.1896709858156
          -1744.269446805565 -1581.4044050191114 -2000.7761203728674 -1581.4044050175191 -1645.1835219295435 -472.4423126214915
          -472.44231260605943 273.74520594779074 -1043.215159741782 273.7452059586468 -3390.8651097209095 -3390.8651097166844
          -852.1986097721854 -891.7343756979935 -3933.7384978698988 -891.7343756936496 -1473.7510948888805 -2478.933918044565
          -7640.993562804604 -1817.8401906623512 -2063.9759553819445 -3911.0191924243863 -4348.023542615221 -7395.874413342532
          -1775.0394728945687 -2074.206559520103 -3591.07183469364 -4532.943318761689 -2184.298127397896 -2181.4978817332058
          -1767.5701227889067 -1612.4693656035809 -2699.9947090900373 -1367.5477421725445 -1751.465647234211 -2220.266282664217
          -1586.012784989528 1346.5359909117753 2960.382648033933 830.2228996508791 -3070.282194089679 2287.825471796616
          -484.53471533429985 -2951.6216977836652 -389.6109258736744 1346.535990945531 -2181.4978817233573 2960.3826480513117
          830.2228996774238 -3070.282194073581 -1767.570122781424 -1612.4693655990227 2287.825471810048 -484.5347153242017
          -2951.621697774654 -1367.5477421681653 -389.61092586733287 -2478.9339180412917 -2699.9947090830206 -1817.840190659785
          -2063.975955379828 -1751.4656472294498 -2220.2662826600995 -1775.0394728927567 -1586.0127849866217 -7640.993562801848
          -3911.0191924227092 -4348.023542613384 -7395.874413339542 -2074.206559518725 -3591.071834691964 -4532.943318759855
          -2184.2981273967566 9874.812033069811 9874.812033073986 1842.1711676407435 1842.1711676414325 10447.411565275714
          8347.627141732683 10447.411565279004 8322.56094561106 8322.560945612595 4129.759783898318 937.0369844159553
          4129.759783900925 10531.821584013029 9397.157370764016 7223.758095826327 9397.157370767327 3961.743520621056
          9474.851271245323 30416.707813764846 30416.707813774286 19298.72683343512 29000.839040699473 19298.726833437835
          23682.466222208233 23682.466222214953 19721.62136422253 18527.97216235236 22667.074771637777 18527.97216235711
          19159.77709877566 61899.425688923555 61899.42568894221 30300.027390198637 61353.39765693972 30300.027390202387
          51568.772454282196 51568.77245429688 31262.48429248825 30387.294800891807 51082.88483934553 30387.294800894306
          31513.465808930705 96284.89947347519 96284.8994734982 40785.20426055461 96805.11720464223 40785.20426056062
          87443.54571207461 87443.54571209708 42204.46272921695 43937.292364134286 87947.73185231007 43937.292364139474
          45598.77524838347 125639.38532385569 125639.38532387435 50528.706345458224 127151.04570572636 50528.706345465245
          121705.64865797802 121705.64865800078 52450.2710686045 56388.73348057471 123252.28801946073 56388.73348058197
          58540.002877620514 136311.43351450103 136311.43351450888 53147.063975806435 138651.82686401022 53147.063975812845
          142173.45309935347 142173.4530993671 55422.83836297606 62697.74704402026 144085.47997531336 62697.747044026546
          64789.94334303725 15240.377357198704 2517.688417729116 4398.70574569613 1107.7931277066255 8889.209738100606
          4402.601621519663 5965.301156439428 12277.134026123811 3481.8169201540486 1000.2114007898749 694.8738218857669
          2963.6014029240964 2950.824181325771 7094.082699951814 4357.652143733647 6116.347151261702 -76.46921295862535
          3083.3915962014753 36069.366270326966 -1849.681162666413 28943.847060806904 10612.947086099475 3524.474527848727
          29268.46857185461 2967.207766440234 9737.265326597015 21874.374527719974 10686.798966664212 7353.092880642767
          9182.69450169816 65901.28220543917 -8968.864177267129 59803.579238286475 19668.608152709465 -1941.776324710192
          56318.94827370075 -581.3620965755681 20133.300595411583 49281.34403051551 20306.041355584202 5600.404301972432
          19878.122433265584 97773.39018227578 -17762.236315352617 93582.87302696938 28824.68730805478 -9402.78654687896
          89869.03078868242 -5453.591411099148 30909.153614638402 84570.07787143029 32175.269699016902 2277.666669334745
          33391.42228060778 124040.80900931443 -24082.470168296735 121976.58974997199 36897.26021457523 -14523.723952590772
          121332.63924014727 -9991.238363500457 40644.523692757 118207.6157065069 43341.37117728454 -1046.5390472667186
          46251.20906858122 133794.45430529292 -26903.4883355469 132223.3817655308 39553.87781852503 -17333.734964899355
          139927.68269364085 -14067.506161952913 43553.218233967724 138417.4085689753 49095.59911501562 -4401.572186395762
          53173.42904046144 -26903.488335556525 133794.45430527214 -24082.47016830138 124040.80900929414 39553.87781851069
          132223.38176551522 -17333.734964906696 -14067.506161961359 139927.6826936188 36897.26021456523 121976.58974994812
          -14523.723952597187 43553.21823395715 49095.59911500364 138417.4085689538 -4401.572186403908 40644.52369274432
          53173.429040449875 -17762.23631535482 97773.39018225428 -9991.238363501703 121332.63924013021 28824.687308045995
          93582.87302694365 -9402.786546882024 43341.371177277026 118207.61570648203 -1046.5390472718937 30909.15361462708
          46251.209068567834 -8968.864177263858 65901.28220542363 -5453.59141110231 89869.03078866133 19668.6081527074
          59803.57923826228 -1941.7763247154207 32175.269699009277 84570.07787140475 2277.666669329954 20133.30059540095
          33391.42228059712 -1849.6811626668577 36069.366270315826 -581.3620965705504 56318.94827368739 10612.9470860964
          28943.847060792265 3524.4745278428 20306.04135558368 49281.34403049322 5600.4043019660085 9737.265326589448
          19878.122433254874 2517.688417727909 15240.377357188172 2967.207766435008 29268.468571843525 4402.601621516104
          8889.209738093225 5965.301156436808 10686.798966657847 21874.37452770959 7353.092880636788 2950.8241813230798
          9182.694501691769 1107.7931277060884 4398.705745692674 3481.8169201520823 12277.134026115333 694.8738218864154
          1000.2114007889238 2963.6014029191674 4357.652143731256 7094.0826999485525 6116.3471512572805 -76.46921295892048
          3083.391596200465 22.865157020568233 392.80512846077454 392.8051284676626 22.8651570215889 -680.3838925614656
          674.1711874903918 -680.3838925579482 774.7363661707034 -25.38381573038123 546.6804816520411 546.680481660355
          -25.38381572723256 71.48731658991767 -1038.6809979878612 926.1202958106649 -1038.6809979809432 1376.0024274868667
          362.70524523127136 40.97702002587441 46.456593060374814 46.45659306142139 40.977020026084276 13.979014152498824
          132.1559710203205 13.979014153177626 97.31553907347319 7.595595035393529 80.36166687553855 80.36166687799822
          7.595595036528692 70.3175332003321 2.6362384166361608 189.55067729791418 2.636238418995589 109.95177011953655
          104.99241350139131 -33.64229082608127 -136.13552240057405 -136.13552240090775 -33.64229082562419 -93.97990549518843
          -156.44367957845407 -93.97990549513187 -5.843489405990173 -9.276161275526732 -38.67783865674917 -38.67783865675401
          -9.276161274844501 -66.18110407529758 -17.39285216181006 -22.595914469833666 -17.392852161414254 1.0447017362266795
          -7.071989150199862 74.92508115695266 -177.02733697088357 -177.02733697138834 74.92508115693435 -109.86774366150667
          -377.0911767599771 -109.8677436620988 71.15648055811887 -96.69987907471227 -230.18422332747437 -230.1842233280316
          -96.69987907451295 -113.63634426062737 -174.39020636236265 -286.6290158695216 -174.39020636267801 -51.4231392462998
          -129.1134665342075 1257.1133735182975 2333.363132029213 2333.363132028489 1257.1133735184758 1503.558509677625
          1855.617756238692 1503.558509677092 698.3576714179194 -111.88679285532842 455.8525532373707 455.8525532366628
          -111.88679285516642 944.802807576891 186.82880760817275 219.89507887420814 186.82880760770163 -164.70073388120954
          134.01486658197507 3577.540115625995 12592.636970493862 12592.63697049118 3577.5401156255043 6261.41518610316
          12652.438041131165 6261.415186100134 1904.158660180938 1473.2406931802561 6227.275164671085 6227.275164670119
          1473.240693179337 4588.033730656834 3738.9076805391237 6074.320689894797 3738.9076805374148 408.54323000482395
          2674.2102173632966 -1177.6753586949733 155.1168971112077 155.11689711180347 -1177.6753586925713 -1012.749892215685
          806.1331749905677 -1012.7498922153757 -836.675902979165 -1173.7679160825166 82.41722211491265 82.41722211132469
          -1173.7679160802656 -361.73361433646835 -1384.9937024524531 1248.0467507504302 -1384.9937024544545 -803.3102217349267
          -219.3641738161423 -173.38462864832118 -29.296351429460472 -29.29635142087369 -173.38462864944836 -104.18073945596461
          46.32948682328369 -104.1807394500258 -51.23416382427763 -401.6784882696272 17.750280165956383 17.750280171446832
          -401.67848827234576 -28.554901204544432 -262.22603325549414 154.15330728951395 -262.2260332521631 -297.23564313650263
          -125.8230061330163 -130.21072986037402 -35.84528916436958 -35.845289162897316 -130.21072986172146 -87.47671094071234
          -8.609121114649383 -87.47671094052609 -129.55628092296809 -92.77879109434127 10.882870702680195 10.88287070675557
          -92.77879109449503 -60.240542891635144 -44.78396054179659 25.731520080807083 -44.78396054085777 -62.25045839323318
          -29.93531116523798 -161.61269882661747 70.44044686339366 70.44044686409394 -161.61269882715484 -98.98857636103861
          66.97515635585378 -98.9885763610095 -340.71563446853185 -204.03481813155804 -80.42968652203402 -80.4296865225822
          -204.03481813296946 -102.45386686891406 -152.3990400162827 -40.80599980042917 -152.39904001626644 -249.75174620594913
          -112.77535329439563 2121.6970212939227 1172.9486608047873 1172.9486608033794 2121.697021290283 1372.386854869872
          660.1889388681516 1372.386854866425 1679.7078635999912 407.2374445086746 -102.7200345113176 -102.7200345118786
          407.23744450627754 859.6271329322166 165.48263826602314 -149.2743022492571 165.48263826355512 191.61040325226998
          118.92837052713016 5713.3610897380095 1369.978577555728 1369.9785775554774 5713.361089734586 3435.2228083493337
          391.01340142139816 3435.2228083469126 5572.041527078486 2456.2576322139184 259.8703501235719 154.86736159739002
          -248.63249570560072 -486.29186559619467 672.0417593881589 -259.4086036378265 -405.1998051771535 -278.07715830904124
          -313.88118706930777 1246.0164920109091 -79.10505947821841 -828.3205567469317 198.65318454314558 37.237106461512894
          713.9793629614782 27.485727743024203 -8.165054852510616 -95.76941865870201 -37.77283735587068 -109.36428354458819
          53.71417074375796 -59.061502431631034 -77.24561806238168 -58.04804056659269 -186.3759051107527 121.50462189914688
          -4.056098083656564 -228.92448657559225 0.09599466557614988 -28.65716876395743 5.0646078127163925 6.35877408099177
          -8.191053123617461 -31.090473353678938 16.00858316890028 -55.45211017100155 5.033578904227731 -4.5050613318151065
          -15.792912965461241 -9.975154442286922 -44.91511111642005 19.778339683204962 -2.343783270042536 -55.28591884143771
          -5.348409456152149 -0.9276074071424318 -15.65578501170981 1.1386810755341294 6.9366024145167735 214.16757112493448
          56.678116020825954 -12.039210343933526 21.534675097050375 80.76089246982092 13.59285007469014 3.748562764858855
          -15.808003922158143 2.4114092237244407 -37.09818851718904 -66.18392637885178 20.088526145527375 -12.267308137533519
          -22.542331137943737 -6.795913284524852 472.4383458773123 1341.8548789149431 -55.61574938086568 1040.0196721556326
          277.744462257142 293.7781689451682 405.7584407416599 32.02676293459511 220.55561583214347 -43.70461952065588
          -7.589944322469435 261.33955497301497 43.07012493700542 -15.32939326205809 138.75542017705638 -12.842118860771004
          342.75880187978214 1532.733573532266 28.424641304944316 2243.932031533158 -54.40699480222884 185.65120719266633
          1132.3077559382523 -55.977519657927104 259.8703501226173 -486.29186559656716 -22.58457933955468 -278.0771583077083
          -426.8913382782589 -828.320556747269 -336.34586273225057 -743.3794524713633 -8.165054851368355 -109.36428354645497
          5.813451423271914 -58.048040568724986 -44.33655207752903 -228.9244865795772 60.12176956372076 -136.43794493733785
          -8.191053123885311 -55.45211017272807 -0.8506868244101824 -9.975154444338319 -54.03266454778908 -55.285918842981985
          33.7282963223893 -25.879909828075398 6.936602417733207 -12.039210344027978 -37.64887206057051 3.748562767176173
          -91.74144900410982 -66.1839263796581 -23.00672692257648 -105.56213056523065 472.438345875123 1040.0196721527145
          105.4596622764681 32.026762936219924 763.2144180225016 261.3395549709644 -272.2529075794537 62.31215499869123
          342.7588018798235 2243.932031532988 -453.77900145257837 2004.6261412259053 -55.6157493781553 1341.854878909259
          28.424641306918147 1532.7335735275 293.7781689427519 277.7444622551817 405.75844074347935 185.65120719372885
          -54.406994802821146 1132.3077559382782 -7.5899443234695525 -55.97751965575186 56.678116023605824 214.16757112851502
          -43.70461951805461 220.5556158344114 80.76089247008085 21.534675100535004 13.592850074081031 -15.329393263941512
          43.0701249421688 138.75542017944565 -37.09818851867155 -12.842118861312674 16.00858316836292 -31.09047334822807
          2.4114092245542196 -15.808003918684342 -4.505061331072313 5.033578908744744 -15.792912967111565 -12.267308136904294
          20.08852614911522 -22.542331140478677 -2.343783270323155 -6.795913285520964 -37.772837362587154 -95.76941865316071
          19.778339678987052 -44.91511111250874 -59.06150243375832 53.71417075232455 -77.24561806733077 -0.9276074092010944
          -5.348409453741981 -15.655785014308298 -4.056098083387491 1.1386810735346073 -248.63249569489827 154.86736159918595
          121.5046219028433 -186.37590510936042 -259.40860363496006 672.0417593907974 -405.19980517209615 -28.657168762587077
          0.09599467007356743 5.064607813881631 -79.1050594777532 6.358774082649077 1246.0164920133457 -313.8811870636323
          37.237106459977326 198.65318455098986 713.9793629587443 27.48572773998786 481.4080329930334 625.9815181388158
          366.8201974476948 -354.80018563751594 749.5645245812789 -654.0914275674195 781.2437617089321 1884.3489245116693
          2575.524338763259 2184.539901914759 -385.0881422155691 -497.8777510179788 2090.4197315022875 170.1391922924717
          2276.9382208686934 -26.21395186104672 -17.110675557434067 -25.125042990997294 0.5767274937035651 -24.12992145414362
          3.599989123715517 -55.266239410903864 43.274653438152654 17.75842980467527 80.60962598130023 45.103899818102974
          -19.55476038132292 -39.244203847275344 105.6140211766842 -28.234879775110333 74.28648443612818 -1.141389868405747
          -9.091756728951097 22.47064275162727 -8.606955759593891 -49.98792219608336 -8.55992068726233 5.635275135002277
          3.962433349459616 -7.227337953297943 4.49596306144643 -14.649785939074569 -3.5953120299157764 -24.612766552244103
          -10.223063056729593 0.030567911483851518 -5.601213820419201 -2.804659088276477 8.258439281400502 64.00864893373424
          238.36627171482107 -12.178324893613699 16.651274811943154 90.04820875283704 23.539656928551544 5.625621620622102
          0.9850874510904077 -13.599682273424964 -41.043785701193265 -72.2766830722372 -25.17585040523406 -14.007913483494029
          23.671686729305392 -8.452697910291086 524.6839648000953 -57.47210182326191 1465.0252715836045 1139.7057257658723
          447.34590206319757 318.8048861099585 307.056596621979 37.63906542109471 -46.80946236310774 244.84941145450557
          -7.770449427624442 290.38993756781724 153.6936528922541 -15.557912524855567 46.9817385218557 -14.240191363499576
          2051.852138847025 1238.7743333204353 4761.398156003295 4464.734509941414 3233.4328407573003 737.7753399831884
          1107.8474504912037 392.85394817727513 45.615424348561646 1676.4262093638881 -91.67075905442493 2444.3572002765995
          1239.4951585333029 205.6553063863539 -56.89662595952859 -64.06624418298394 481.40803299284784 -354.80018563511675
          58.352051484132105 1884.3489245165001 -302.3122029424103 -497.8777510141458 1815.489336884397 -357.06037833679665
          -17.110675557749282 -24.129921453946313 -19.265265448001543 17.758429805045616 36.51210349312743 -39.24420384633678
          98.32638581025606 61.8380875226367 -9.091756729081762 -49.9879221963253 -6.585413417370013 -7.227337953328914
          -59.02002269832447 -24.612766552381267 17.676700639412637 -8.00691217222527 8.258439281275749 -12.178324893690771
          -42.23400489706296 5.62562162042307 -102.25871094966658 -72.27668307248112 -29.010702336757685 -120.97477365340754
          524.6839648003483 1139.705725765772 122.34573238071586 37.63906542089397 835.8229609376373 290.38993756754064
          -294.592727536369 72.9455525483188 2051.852138848017 4464.734509940902 1077.8455071392882 392.8539481775944
          4279.023852398295 2444.357200276591 -459.18440069133794 2187.390436976406 4761.398156002033 1238.774333320665
          1465.0252715832112 -57.47210182341799 737.7753399818957 3233.4328407578855 1107.8474504914302 1676.4262093635002
          45.615424348979786 318.8048861096937 447.3459020630763 307.05659662206864 -91.6707590547951 205.6553063862318
          1239.4951585338247 -56.896625959453104 -7.770449427630226 -64.06624418282244 238.36627171404592 64.00864893415107
          244.84941145377456 -46.80946236295782 90.04820875280257 16.651274812141686 23.539656928041737 -15.557912524988751
          153.69365289209264 46.98173852134968 -41.0437857012042 -14.24019136367595 -8.606955759701862 22.470642751737444
          -13.599682274053887 0.9850874511003838 5.635275134978691 -8.559920687267553 3.962433349469464 -14.00791348367148
          -25.175850405439853 23.67168672889165 -3.595312029938146 -8.45269791046883 0.5767274937346691 -25.125042990497352
          -14.649785939253503 4.4959630613507695 -55.26623941092447 3.599989124499814 43.2746534378001 0.030567911165160666
          -10.223063056700976 -5.601213820438354 -19.554760381393162 -2.8046590884531386 366.8201974471024 625.9815181428022
          45.10389981896247 80.60962598076176 -654.0914275680638 749.5645245881844 781.2437617073736 -28.234879775340637
          105.61402117688394 74.28648443635433 -385.088142215237 -1.1413898685836272 2184.5399019256047 2575.5243387622663
          170.1391922931062 2090.4197315032443 2276.9382208750912 -26.21395186166134 10769.44131759206 24457.58058066192
          2639.4249496499674 16305.93516827876 11072.89721859073 6290.933460747742 4593.27344373328 9614.811361197259
          9165.112943886495 21761.670827183643 3818.0676233269737 13329.773796477679 3073.4657957414165 10129.313271537034
          6624.792786717415 4704.664411014843 7767.283103478365 3326.7816462104065 32600.087082935614 25509.763107798673
          -2232.0917400685134 38145.55945857785 20153.125169369756 3386.450845159099 10978.564567117694 30872.087791820177
          25588.476078352098 29631.18041709205 3129.8417652570697 31232.633343828187 10151.100026352662 19625.236138795015
          7740.409796374647 11291.680622967946 23527.152594976968 9744.224264101123 65188.986637745176 19602.52894009856
          -9749.447459188277 68797.15976906338 31287.41497382572 -2504.777448776625 20237.469764448164 62803.38971580777
          54755.41801876249 28827.784858654664 -743.4251535998155 59230.51253628111 20862.919743026177 31732.422340838126
          5668.569437366753 21176.762038641384 52174.5274032459 20854.76676760706 99654.61647886109 10090.506473480003
          -18644.49406252258 100660.56968554624 41665.68896096683 -10128.570477796236 29415.642386390136 96700.98677898815
          91252.75839344219 23617.2385425361 -5820.2509328952565 93188.16668567486 31693.812725474265 45310.48078517358
          2099.2386471989867 33177.96674811028 88098.75586243633 34593.00612653813 127795.08287478557 3704.517668125321
          -24664.275311319725 125856.97646698018 51070.850990537816 -15019.008098341572 37282.59012591447 123978.46553004195
          124849.5427048828 17634.486524509364 -10342.715496004528 124022.99214036745 41165.96826393444 57441.02944401631
          -1276.1945557514282 44161.338600217605 121147.40050138449 47256.80325085267 143385.04547168594 12555.208033435416
          -14227.813993796473 140946.73984425951 63093.298614759675 -4518.682134606368 49410.74174336387 139550.4279828529
          53567.15174225563 10769.4413175963 24457.580580652022 11072.897218589456 25639.501313994275 9158.995444061047
          9165.112943888986 21761.670827178543 11135.936652421455 10129.313271536474 22731.708395448582 8017.421184471257
          10201.715368843856 32600.087082943224 25509.76310777478 20153.125169365183 27057.960339788537 31153.018788687245
          25588.476078358828 29631.180417076004 20534.075601023913 19625.236138792876 31315.023440012657 24550.89332938633
          20249.3173911589 65188.98663775435 19602.528940065004 31287.414973818355 21376.3266613928 64691.3118182707
          54755.41801877129 28827.784858625022 32209.418431370326 31732.422340832105 30749.27833226327 54299.60224426372
          32839.381662044645 99654.61647886866 10090.506473445215 41665.68896095827 11944.556959769923 100260.7285020058
          91252.75839345215 23617.238542500316 43052.29427408 45310.48078516605 25553.569705835238 91834.77968140287
          46951.52399908698 127795.08287478538 3704.5176681012217 51070.85099052805 5660.823562782018 129372.22155663627
          124849.54270488778 17634.486524478496 52974.36597928479 57441.02944400729 19424.438194867325 126474.46744707577
          59576.98188624925 143385.04547168207 12555.20803342 63093.29861475104 14204.068823334112 145332.8047225554
          65179.86538899869 125856.97646695522 -24664.275311337413 140946.73984423786 -14227.81399381042 37282.59012589211
          -15019.008098350254 123978.46553003723 49410.74174334454 -4518.682134613342 139550.42798284386 41165.96826392669
          53567.15174224608 100660.5696855208 -18644.494062543075 124022.99214034088 -10342.715496022967 29415.642386366853
          -10128.570477807318 96700.98677898868 44161.33860019454 -1276.1945557620857 121147.40050138252 31693.812725468662
          47256.803250845805 68797.15976903765 -9749.447459210747 93188.16668564925 -5820.250932916233 20237.46976442357
          -2504.777448787309 62803.389715809215 33177.966748086896 2099.238647188902 88098.75586243784 20862.919743021073
          34593.00612653376 38145.559458559685 -2232.0917400840262 59230.5125362579 -743.4251536181619 10978.564567099696
          3386.4508451516353 30872.087791821607 21176.762038619712 5668.569437359415 52174.5274032483 10151.100026348493
          20854.766767603698 16305.935168268832 2639.4249496437747 31232.633343815898 3129.8417652479857 4593.273443723805
          6290.933460745633 9614.81136119662 11291.680622955844 7740.40979637028 23527.152594977906 3073.465795738629
          9744.224264097995 13329.773796474237 3818.0676233242325 4704.664411010337 6624.792786716973 7767.283103479132
          3326.781646209154 -1785.2230155387015 -1785.223015540315 8049.265078772092 8049.2650787618095 -4480.320520668136
          5229.310609133901 5229.310609131549 5354.167573638322 10929.0260140069 10929.026014000268 2947.2451614180745
          8646.960566288933 -25978.229817284744 -25978.22981728828 -5201.050752894411 -5201.0507529164015 -28938.065778564047
          -8219.05274427493 -8219.052744277771 -8160.88671418294 7173.587656686548 7173.58765667065 -11327.182306818957
          4065.4580941359936 -64220.310161772 -64220.310161774054 -29884.180442858793 -29884.18044288675 -66658.30930293484
          -38333.33771140883 -38333.33771141014 -32322.17958403458 -10673.59233335233 -10673.592333377497 -41144.88007142195
          -13485.134693377375 -105794.03166873452 -105794.03166873875 -58251.503251740396 -58251.50325177034 -107481.98347937468
          -76727.12506168021 -76727.12506168176 -59939.45506239341 -35850.68471565356 -35850.684715683055 -78791.58098399214
          -37915.140637979464 -136960.01471965865 -136960.0147196606 -79277.39540064023 -79277.3954006591 -138007.67188397542
          -111808.7335246069 -111808.73352460757 -80325.05256496544 -59567.34770601781 -59567.347706041954 -113120.18122357217
          -60878.795404994824 -133120.5620620698 -133120.56206207172 -74461.9170648043 -74461.91706481655 -133904.4286917374
          -75245.78369447705
        </DataArray>
        <DataArray type="Float64" Name="stress_zz" format="ascii" RangeMin="-109119.0210391779" RangeMax="102627.16552340385">
          -6195.243501037235 -100073.59553999253 -100073.59554002405 -6195.243501062326 686.0311987774276 -99626.73410638512
          -99626.7341064112 686.0311987540814 -63097.90494661394 -100324.50279043129 -63097.90494664645 -5610.7573999847045
          3718.893433276478 -92639.53331864295 -92639.5333186754 3718.8934332538943 -54515.06104031726 -100036.18774221429
          -54515.06104034161 1005.3813670452421 -63348.812197053194 -54377.34671898543 -92698.7172172699 -54377.34671901398
          4140.009764785089 -54924.51467614557 -54436.53061761044 -2876.7032027497767 -89904.29815863271 -89904.29815865653
          -2876.70320278157 -56597.36372785318 -90647.96924737313 -56597.363727887336 -2734.3283741943005 4547.009287465849
          -87701.3056281003 -87701.30562812652 4547.009287436117 -57341.03481659877 -52896.65586176224 -88143.93623034866
          -52896.65586179436 4758.030612905081 -53339.28646401355 5653.0960250216 -63713.27168000938 -63713.27168003073
          5653.096024980209 -37899.82390466425 -65230.68684781743 -37899.82390470688 5614.536678464005 9580.540970704862
          -69546.43436736678 -69546.43436739131 9580.54097066829 -39417.23907248294 -40048.246320675105 -70591.14594260081
          -40048.24632071441 9690.555085654534 -41092.95789591652 16406.391866473798 -30925.06339867653 -30925.063398687358
          16406.391866431615 -14186.271990790947 -33408.4277344105 -14186.271990826386 16414.29790975444 17900.391936711178
          -40400.34093419531 -40400.34093420474 17900.39193666679 -16669.63632653722 -19086.159423107016 -42390.459694573015
          -19086.159423144203 18182.316310891347 -21076.278183498598 26282.89574048924 -3538.2217285674687 -3538.221728576167
          26282.895740461285 6103.281326161171 -6845.990439038462 6103.28132613696 26466.29665373768 26765.75193173354
          -10868.494425975403 -10868.494425985578 26765.751931696283 2795.5126156824217 2538.6207714810666 -13845.104337064604
          2538.6207714494267 27378.89916660756 -437.98913961886666 31022.34436797175 7027.445902586064 7027.445902584615
          31022.34436796851 14293.902284380389 3361.448681380729 14293.90228437717 31414.60899579708 32541.51720321691
          7457.970274382691 7457.970274378562 32541.51720319936 10627.905063174168 16192.92915615929 3819.042764531451
          16192.929156145598 33337.1939608353 12554.001646303268 1516.7635970293798 2930.952241966871 2930.9522419665136
          1516.7635970273682 2385.944415700033 8820.960519092163 8820.960519087967 2385.944415693368 2712.792004606405
          2392.5363689032088 2712.792004603987 857.4278311277387 2019.1599103956855 5278.797001498529 5278.797001493338
          2019.1599103911497 6782.09252685946 8891.610985374018 6782.0925268539195 1087.1862733093994 2331.419568099798
          4600.27038938125 4934.726025484084 4600.270389375071 1029.2560514787037 6026.000156743705 4090.6508814193344
          406.2124232259795 150.0944427096398 150.09444271332873 406.21242322699834 576.0363171609713 67.48574593552738
          576.036317163217 316.8330443226204 811.7543580319782 1670.401174598796 1670.4011746024048 811.7543580299603
          524.4344452498915 1602.6362443157632 1499.202888722298 1602.6362443154176 590.0225069109295 1447.7599613762302
          16.12826760956085 -517.9122700517694 -517.9122700585508 16.12826760649932 -42.37090315956652 -519.70241784382
          -42.37090316546812 10.686885820181274 162.34126408002697 -175.98461698651806 -175.98461699093855 162.3412640793403
          -52.03262344370176 288.3440686184099 -188.07775732689308 288.3440686153915 146.27863472854597 274.2952779928492
          2023.0598375659 3265.580324545571 8430.292722224709 8152.257065458534 3342.8315923512837 3287.974748942513
          2246.0271482281114 4319.948407193563 5216.722180387 8633.872830493663 8580.492462608969 6969.411172087435
          3138.99854588533 5651.367185992087 5269.878546826491 3922.5651458647703 8215.237767209583 5230.712009543664
          258.38922535620577 246.19837817697774 595.9993296232244 232.24932275946236 395.7305108614497 1031.3152319502615
          1936.6676053867998 604.6173232760143 1809.8674698383763 1880.0511233637549 1067.2367588984148 1774.6075889774538
          -8.471238910392117 -499.22324972396933 -63.365304295360815 -512.9931485684385 9.19316113371724 171.7859081333435
          -85.2318327047974 -53.357706161341795 333.49750922963716 -129.88211725155173 177.73885667212792 312.62472166137104
          -499.22324972288186 -8.47123890730694 246.1983781734363 258.38922535131854 -63.36530429854526 9.193161132726559
          -512.9931485719644 -85.231832707009 171.78590813083727 595.9993296199043 395.73051085970303 232.24932275942643
          -53.35770616742119 333.49750922419815 177.73885667019826 -129.88211725539207 604.6173232760873 312.6247216560217
          3265.580324537306 2023.0598375636719 1936.6676053779129 1031.3152319469104 3342.831592346246 2246.027148226558
          3287.9747489398123 1809.8674698338282 1067.2367588958318 1880.0511233604623 3138.9985458847405 1774.607588976557
          8152.257065451939 8430.292722209917 5216.722180377538 4319.9484071873985 8633.872830482043 6969.411172077812
          8580.492462608283 5651.3671859830965 3922.5651458609395 5269.878546822026 8215.23776720385 5230.71200953938
          -4738.399241048413 -4738.399241049666 -16900.31710237575 -16900.31710238125 -2663.35406043301 -2663.3540604307445
          -5037.692454973441 -8687.680966059157 -8687.680966059172 -10371.950078936376 -10371.950078941674 -19517.588624507986
          -3202.6533380367855 -5219.777248337002 -5219.777248336878 -10585.757697900846 -11369.060966813957 -6513.724365452428
          -419.2135555338782 -419.21355553158617 -420.41696651155183 -420.4169665076347 -470.5374684656474 -2535.554936741989
          -2535.554936747659 -522.3076191921563 -1416.4382869146852 -1416.4382869131437 -2875.981675783466 -1731.4802647516865
          506.8039948557448 506.8039948542655 13.85752040153734 13.857520400309145 495.10640308415526 -110.20897366877223
          -110.20897366342933 9.414204640202101 -308.18711263560573 -308.18711263275077 -132.5509151159535 -329.3382767295751
          -2618.6427894931994 1204.347034626924 -1717.4237358600155 -3156.479841501753 -145.96888137321184 1736.9095638049678
          -3402.769794099789 -1548.3446925376559 -37.67800413045961 -2801.75191044654 -1492.4656520457052 -1315.7194203277481
          -748.7555165661986 -707.7753487906853 -513.6411492743425 -2064.749581223106 -468.46940100106093 -1043.1988481690735
          -2051.184403199573 -993.5430923597537 425.80125822928056 -18.984658657682388 482.7597967854928 -195.48232600290467
          10.266463108279382 -339.23640874545146 -131.06630475505722 -302.5278042878544 425.8012582280984 -748.7555165730598
          -18.98465865133609 482.75979677835767 -195.48232600310396 -707.7753487931474 -513.6411492772779 10.266463108161716
          -339.2364087436 -131.0663047548892 -468.46940100006 -302.52780428614676 -2618.642789492098 -2064.7495812320126
          -1717.4237358554594 -3156.479841504495 -1043.1988481682845 -2051.184403207823 -1548.344692536013 -993.5430923587226
          1204.3470346277659 -145.96888136837447 1736.9095638017552 -3402.76979409971 -37.67800412777797 -2801.7519104460025
          -1492.465652047406 -1315.719420327091 1777.897668467355 -318.6285406454412 -318.6285406449293 1777.8976684728575
          -22210.11900852776 -6221.849313776302 -6221.84931377324 -22210.11900849882 1057.8217761335404 -1204.8028298624067
          1057.8217761358248 519.5557973525362 -13440.158480478769 -3707.653112760285 -3707.6531127582475 -13440.158480456847
          -11560.463220733458 -6619.4975100319425 -11560.46322072241 -25735.951206458743 -202.6154608076257 -6877.839904098912
          -4458.126318313213 -6877.839904090906 -14798.236365838871 -14026.869596113418 -8605.081971493786 -993.7940233940748
          -993.794023393331 -410.5486131640308 -410.5486131638165 -459.99843936069885 -1050.6287463957378 -459.99843935959666
          -807.38138786161 -807.3813878610067 -3151.615874736817 -473.2780455371762 -3151.6158747355357 -671.9704990051803
          -2132.1867988505533 -945.7639597687619 -2132.1867988491235 -3611.971907432653 -2553.0224017392743 157.33948720094884
          157.33948720085579 664.4308565262593 664.4308565258732 -333.6505579462562 221.049405436702 -333.65055794599164
          118.58344349718 118.58344349710285 -92.19603013695303 661.9210033657092 -92.19603013695621 -293.2975563082332
          -538.4123266905258 111.05598723119704 -538.4123266902056 -114.53175057802025 -576.2493105948995 8862.621460750355
          509.472923052822 1639.8770738193123 -3330.7133987489206 4052.0921128614 690.303427879897 6972.060917539088
          2336.6836770079553 -2375.65125204414 -314.3814454707258 -4106.012437837715 -4398.224821887918 3445.687799309783
          -108.56773653349569 -2194.9707593292187 -1832.595568844207 -3862.595294086947 -1787.9589352946498 -1009.3945222224738
          -823.4406886304319 55.0059768645445 -944.3262065333237 -1175.4742985455719 -2524.0240423375403 -530.6926730453029
          -53.43425363099789 -1630.3882237632045 -867.2992955846615 -2506.3761529185617 -1569.6039205918612 248.28646473618562
          575.7488342620403 -196.30208563899703 185.5834786040989 59.48390234007213 -164.77548902797412 629.9535060344839
          -270.5273608581603 -570.9256441165625 101.40613511171324 -108.70916530178994 -527.1417593911807 248.2864647358358
          -1009.3945222208117 575.7488342612985 -823.4406886291973 -196.30208563846406 -944.3262065320982 185.58347860389964
          59.483902339843596 -1175.4742985437313 -164.77548902781217 -530.6926730449061 629.9535060339225 -270.5273608576996
          -570.9256441158582 -867.299295583568 101.40613511164429 -108.70916530167835 -527.1417593905478 509.4729230559538
          -3330.7133987428692 55.00597686692333 690.3034278811534 -2375.6512520371853 -2524.024042334031 -4106.012437834863
          -53.434253629490826 -1630.3882237596372 -2194.970759325847 -2506.376152916683 -1569.6039205897218 8862.621460739525
          1639.8770738191813 4052.0921128590608 6972.060917531722 2336.6836770056016 -314.3814454684107 -4398.2248218812165
          3445.6877993077987 -108.56773653112691 -1832.5955688407016 -3862.5952940834823 -1787.958935292102 -1299.9597080545593
          -1299.9597080539775 -2844.83262743219 -2844.8326274314322 -699.1157510428509 -1364.2167055062996 -699.1157510422163
          -1639.3205856757636 -1639.3205856752302 -717.8005702391972 -2868.9837677125843 -717.8005702389403 -778.476413293067
          -327.3522676520895 -1627.9442118309332 -327.35226765179266 -744.0384086245806 -338.78667157445824 -1895.0047949725017
          -1895.0047949725813 785.7461699242174 -2393.375398447998 785.7461699255092 -951.1091027651391 -951.1091027641567
          344.277601653631 -27.716310573304504 -1035.5594319051634 -27.716310572395983 -201.94182456687267 11846.682084370932
          11846.682084394764 7930.923908529018 11523.694751000374 7930.923908539394 -1445.8178718337972 -1445.817871831298
          6992.745840076812 3991.3606196285555 -2067.8467777094925 3991.360619632157 3309.117516292354 -1690.1859649197509
          -3153.5160200505356 -650.767209109822 -1460.1801898783751 -1933.7190321634303 -682.292042821488 -2966.4565641544386
          -632.4970010683298 -256.8347144414907 -1771.5658063952274 -666.2851978909456 -265.73409963884217 -2019.6211177333407
          1522.8636537805878 -1875.9842907756254 -1264.9582972942512 1207.1825598272019 253.04672581954958 -1080.92242914062
          184.66407093896905 12758.867494300883 10888.141716596365 12503.096640540827 -1325.376841994653 9917.450031307162
          5504.450484504023 -1395.1822826158195 4768.427725094864 12758.867494345539 -2019.6211177297057 10888.141716610182
          12503.096640579213 -1325.3768419865785 1522.86365378426 -1875.9842907746465 9917.450031319222 5504.4504845096035
          -1395.1822826112702 1207.1825598296543 4768.4277250994355 -1690.1859649181183 -1264.9582972909766 -650.7672091083755
          -1460.1801898772958 253.0467258219616 -1080.922429138582 -632.4970010672685 184.66407094050342 -3153.5160200494347
          -1933.7190321625806 -682.2920428212547 -2966.456564153127 -256.83471444098126 -1771.565806394382 -666.2851978905262
          -265.7340996383612 87940.75647207837 87940.75647211372 72836.40991113108 72836.40991115718 31710.697896597605
          88615.0920669529 31710.697896623315 89094.54586639696 89094.54586643014 32245.841953652613 73134.13884604617
          32245.841953675677 32339.91522694367 38538.44747004939 89737.23195987644 38538.44747007417 32745.481081653234
          39222.71546271777 80371.89274392356 80371.89274394882 28662.064461194583 80976.9532100063 28662.06446121802
          93496.25692222844 93496.25692225978 28997.12485117659 39220.5699145604 94609.6373180468 39220.569914586675
          40116.38149497751 60918.991679238825 60918.99167925332 23576.916699687972 60804.20036159408 23576.916699708585
          79283.85961027243 79283.85961029447 23536.043177682383 34547.74347172217 79939.54771832927 34547.74347174543
          35123.35285013656 35356.92736420152 35356.927364210846 16895.70979433095 34181.766217565455 16895.709794350827
          55136.955631896286 55136.955631907214 16465.359988790457 27065.882494369085 54943.89572662631 27065.88249438986
          27304.69486940955 14404.438317187425 14404.4383171894 11938.5021904506 12442.596932573466 11938.502190461388
          29923.495301788622 29923.495301794337 11351.335349026862 19521.675492875733 28884.619763589762 19521.67549289218
          19556.776682338663 6973.431538501515 6973.431538500361 10773.591366249198 4778.237488062211 10773.591366249513
          13757.053864831145 13757.053864830283 10344.142754214521 14501.259583353509 11889.760195645098 14501.259583359042
          14181.959260178837 84048.41022950296 -20520.46706304649 72839.96038846218 -6606.75864315433 85051.4911101035
          23019.80318768496 -14673.719451598156 86819.19927867326 -7308.30514479016 72137.92912123253 28774.52459701079
          -4035.8322695019147 26444.7174337094 87279.19293369332 31974.9582220621 -2601.7507287097496 29708.972150222166
          34558.23225761233 77218.52390750553 -18558.847998885354 77033.19959275304 19725.987860929603 -12691.46447369503
          89708.44651582267 -9873.639377586946 22567.01746614852 90190.14922671314 30209.55562291076 -3951.163966061242
          33411.64468411885 59637.53772584742 -12500.968927961057 57429.247286546975 14562.783347067949 -7050.49776366464
          76505.14722231383 -7136.509072895287 16183.873709565942 75503.21465683047 25184.46683415539 -1473.798659128246
          27514.855758297235 37026.79250325037 -5229.175337827324 32172.37651651809 8005.216205117643 -268.0439373790955
          54763.167642483764 -2526.1839226596085 8058.57391197562 51297.21014562544 17607.341996715502 2660.738808425378
          18467.824613828834 18623.67407742452 1303.4756524983288 11436.755434047158 3001.9414442017564 5897.678972428239
          32477.74986438685 2121.797482412627 1705.5837824780308 26255.31381533432 10023.738781408556 6877.575979777798
          9290.410005564878 11915.10877588657 3874.746640283045 3840.019053890513 1227.7459463430691 8521.434137175464
          18373.418054795315 4892.247938495951 -486.45516620875014 10347.186420128679 4985.60104711748 9450.045684026161
          3251.3841025492666 3874.7466402849695 11915.10877588474 1303.4756524832612 18623.674077398275 1227.745946343703
          3840.0190538902107 8521.434137175558 4892.247938489993 18373.418054777718 3001.9414441835547 11436.755434038336
          5897.678972417061 -486.45516620826834 4985.601047108459 10347.186420122096 9450.045684019391 1705.5837824704834
          3251.3841025453485 -5229.17533785595 37026.792503200006 2121.797482389081 32477.749864350582 8005.216205080962
          32172.376516498 -268.0439373978711 10023.738781380802 26255.31381532114 6877.575979762098 8058.573911958996
          9290.410005552585 -12500.968927995345 59637.53772577955 -2526.183922693157 54763.16764241738 14562.783347020271
          57429.24728651093 -7050.497763689862 17607.341996669016 51297.21014559677 2660.7388084039467 16183.87370953871
          18467.82461380726 -18558.84799892216 77218.52390742788 -7136.509072929159 76505.14722224092 19725.987860876223
          77033.19959270244 -12691.464473722928 25184.46683410533 75503.21465678285 -1473.7986591567787 22567.01746611313
          27514.855758262478 -20520.46706308139 84048.41022941482 -9873.639377629721 89708.44651573656 23019.803187628215
          85051.49111004107 -14673.719451622212 30209.555622850705 90190.14922665503 -3951.16396609241 26444.71743367094
          33411.6446840786 -6606.758643202962 72839.96038839257 -7308.305144831635 86819.19927859165 28774.524596955333
          72137.92912118485 -4035.8322695381557 31974.958222005742 87279.19293363563 -2601.750728740659 29708.972150183872
          34558.23225757322 -45390.2155865624 2445.027295924951 2445.0272959391436 -45390.21558653178 -23656.493835335583
          2680.7735479455164 -23656.49383531307 -43780.3883238963 -37484.21140204489 2332.8881977290303 2332.8881977371134
          -37484.211402003275 -22046.666572673545 -20925.100006212284 2515.5259164337776 -20925.100006183347 -34445.33120963168
          -17886.219813805412 -59226.29360106548 2637.789567584082 2637.789567598838 -59226.29360104601 -28426.682758792696
          2712.106782100962 -28426.682758775492 -59133.64132034208 -52057.884469957666 2192.1424732401388 2192.142473254549
          -52057.88446993424 -28334.03047807044 -25248.142707534116 2242.92046443278 -25248.142707514216 -51877.11013703678
          -25067.368374615 -73417.23176524346 3326.4665928818104 3326.4665928971376 -73417.23176522713 -34984.35495868369
          3305.5882355367908 -34984.354958667864 -73409.80380171067 -66321.80818616811 2973.14092429264 2973.140924307656
          -66321.80818615062 -34976.926995151145 -31678.78965967512 2987.466334382374 -31678.789659658632 -66317.27795764123
          -31674.259431148734 -88108.3244907443 4573.019137252509 4573.019137269216 -88108.32449072876 -41460.17760766165
          4356.090230719869 -41460.17760764569 -88182.57895620487 -80753.35953187515 3863.7803485225327 3863.780348538454
          -80753.35953185929 -41534.43207312201 -38305.34902372961 3805.1910470116454 -38305.349023713745 -80743.0338333361
          -38295.02332519056 -102573.54522277543 7674.351198658532 7674.351198676465 -102573.54522275983 -47770.58653222717
          7185.635258822744 -47770.5865322106 -103061.87109004783 -95821.56928410336 5368.753653846055 5368.753653863222
          -95821.56928408779 -48258.912399499095 -44728.54476571324 5045.212733060687 -44728.54476569684 -95980.40391356336
          -44887.37939517283 -108680.14543707242 1475.0547107242357 1475.0547107439095 -108680.14543705786 -59013.73979659247
          1885.064998019407 -59013.73979657427 -109119.0210391779 -106684.48733379436 5317.805914904212 5317.805914922431
          -106684.48733377797 -59452.61539869611 -51771.210650139365 4881.720768265104 -51771.21065012189 -107502.3044388788
          -52589.02775522325 631.6478617344156 -35982.516590259285 -35982.51659026298 631.6478617296224 -19088.86885073504
          -34736.04906095655 -19088.8688507393 1033.0641274788138 1834.4823142580765 -29166.408088858065 -29166.408088863624
          1834.4823142555058 -17842.401321432593 -16548.27868057563 -26842.589948263885 -16548.278680578966 1794.7106762571416
          -14224.460539980339 1269.652726613687 -49504.590575410846 -49504.59057540816 1269.6527266057917 -24271.67138722051
          -49413.31006976143 -24271.671387221573 1363.3490900804495 1075.54587667455 -42544.40324851706 -42544.403248516624
          1075.5458766658721 -24180.390881572966 -21081.732313527173 -42375.28633050465 -21081.732313530083 1102.0561955742407
          -20912.61539551643 2073.57374692857 -63747.2462926813 -63747.24629269283 2073.573746914309 -30813.20135109915
          -63735.60611307547 -30813.20135111165 2069.1070457169876 1713.969747054055 -56616.86106832388 -56616.86106833031
          1713.969747041546 -30801.561171493806 -27514.629006556876 -56603.41697504315 -27514.629006567455 1737.7529860167201
          -27501.18491327821 3313.590064621941 -78437.02753177569 -78437.0275317943 3313.5900646053165 -37286.63666519085
          -78504.91337287225 -37286.63666520759 3117.694807526227 2622.2227629830663 -71086.55792343809 -71086.55792345438
          2622.2227629696226 -37354.52250628646 -34120.02132478301 -71076.721657507 -34120.02132479711 2573.0566383649802
          -34110.18505885083 6238.243780012564 -92883.54937900178 -92883.54937902646 6238.243779988849 -43624.14846420382
          -93336.21503958174 -43624.14846422794 5781.548350686298 4080.7474114229103 -86109.405055957 -86109.40505597932
          4080.7474114026572 -44076.8141247835 -40559.93073686105 -86255.01300408189 -40559.93073688182 3780.1820383635277
          -40705.538684985164 4129.46078516951 -97241.28380806975 -97241.2838080935 4129.46078514521 -47587.8284983743
          -98001.00718110315 -47587.82849839853 3692.0119748750603 -48347.55187140794 22303.72577087633 21820.798443022246
          2748.818339735106 11406.516059498837 22705.03311614207 11689.297025590382 2167.1358645584382 15845.64795473223
          14500.665828868565 7311.482294451396 11840.57312456196 8900.582333733042 15812.039642111376 9752.495495182044
          6182.9973517319795 9843.939930443741 31216.593436426592 30943.685739220604 1384.3700522153606 16221.784158877133
          31199.749263545484 16149.219693642546 1344.7798212211528 26572.328433514627 26335.195400309396 1844.9259193745902
          16257.456340307883 13842.453666211797 26602.36525044889 14052.616494743348 1620.120228883336 14073.798574567467
          39719.15863739339 39656.80866958019 2172.4100265396232 20907.39683585328 39705.76254669189 20919.697377634584
          2144.0934398148393 35429.624953701816 35342.88161604248 1783.0084880324355 20930.016022828037 18561.644017916722
          35420.44591738363 18570.772812985237 1761.2408193661577 18598.67112932267 47644.34492436728 47998.72872056639
          3680.7922252889066 25557.68972807436 47717.600942416495 25797.511047218606 3558.4910322186297 43756.09713541105
          43778.86058151816 2856.988098372668 25595.79656160852 23220.52803605882 43762.587759060945 23320.272638146984
          2785.506318249919 23276.395336857004 55381.82848241931 56895.23675992561 5575.4809027944975 30508.986013468093
          55651.088443961205 30740.10340334681 5667.440911094365 51540.522136621454 52079.173692670855 4263.539244731034
          30164.009249514544 27928.52105228071 51649.55551863029 28084.509319081288 4206.7831985152425 27841.322208953112
          62459.24642878359 63757.64992337279 954.5281333204632 32561.630879272216 62356.90232223963 31452.4253219398
          1853.1350528910737 31201.354981158525 22303.72577086801 11406.516059491541 21528.354282320368 15845.647954727214
          11331.353425295925 8900.582333728757 15384.551132259849 8682.44897991354 31216.59343641882 16221.784158867122
          31109.023169882097 26572.32843350446 16209.524415681233 13842.453666200405 26478.794147946577 13793.59905953878
          39719.158637378125 20907.396835837375 39705.230375114654 35429.62495369 20896.088527817534 18561.644017903665
          35420.86547697187 18556.344378467125 47644.34492435161 25557.68972805659 47650.911785896875 43756.09713539574
          25519.99248157959 23220.5280360436 43749.512594190564 23192.17129652405 55381.828482398516 30508.9860134454
          55417.14877815185 51540.522136604195 30490.48887256321 27928.521052259784 51474.86387153526 27872.663948618076
          62459.24642876349 32561.630879251203 62469.445076199845 32680.084057905337 5575.480902746078 56895.236759871
          954.5281332695189 63757.64992331445 30740.103403294466 55651.08844392479 5667.4409110595325 31452.42532188731
          62356.902322201226 1853.1350528543585 30164.00924947809 31201.354981123117 3680.792225247698 47998.728720528394
          4263.539244687451 52079.17369262535 25797.511047176627 47717.60094238914 3558.4910321870966 28084.50931903292
          51649.55551860162 4206.783198484986 25595.796561576703 27841.322208919828 2172.410026504367 39656.80866955331
          2856.9880983344187 43778.86058148578 20919.6973776016 39705.76254667061 2144.0934397879782 23320.27263811074
          43762.58775903631 2785.506318220989 20930.016022802058 23276.39533682929 1384.3700521883666 30943.68573920426
          1783.0084880004415 35342.881616020764 16149.219693618066 31199.749263535647 1344.7798212024745 18570.77281295549
          35420.44591736666 1761.2408193429083 16257.456340290815 18598.67112929967 2748.818339722983 21820.798443011925
          1844.9259193578675 26335.195400295634 11689.29702557767 22705.03311613168 2167.135864546296 14052.616494725378
          26602.365250438164 1620.1202288692684 11840.573124549204 14073.798574552344 7311.482294432339 14500.665828860307
          9752.495495168132 15812.039642106 6182.99735171628 9843.939930432949 31782.454694984892 3537.587088912061
          31066.839526494397 15502.443103105112 3785.252398137928 14751.409437126378 32146.740169624398 28046.613787727685
          6882.198312904392 27563.50489828318 15415.192413304314 11706.827057622697 6342.601380485439 12299.410714616586
          28551.156654404844 12523.438126467943 38486.283428262795 2525.983670118758 38331.409283524816 20502.08463769865
          2584.5445230913256 20344.289596233422 38480.007894808965 34265.79223782864 2359.5625687145516 34155.91653454054
          20447.869328361783 18137.75087253842 2366.761601392284 18079.572701451045 34300.337546485935 18155.382723762606
          46982.663479225186 3445.851120263915 46962.004851898106 25175.853795569645 3409.2601888654385 25209.897163286158
          46974.09482985496 42702.48968162403 2980.9602370152747 42649.520945528864 25197.64668656535 22836.56119240909
          2974.9883364707557 22824.59368027185 42686.402582339855 22840.048548405084 54895.49617528164 4978.7094654054945
          55295.570843880254 29820.7675931866 4842.68538809673 30090.219824409876 54977.06099951646 51030.38724479705
          4129.362742159219 51065.07915294825 29862.9528635736 27484.45078413382 4047.343630840601 27599.806212964246
          51037.56832298479 27545.04124232321 62607.93522503686 6901.551055995447 64263.218240076356 34796.11767073345
          7021.2176301246345 35034.07526495471 62893.69321043031 58777.917489670675 5543.08007659605 59369.21906051047
          34409.14603719628 32197.811718526584 5487.059362487827 32359.723642676756 58893.71853093704 32093.96302083593
          81041.64518007237 -6803.531615210051 81020.49332377574 36254.22772671535 -3898.8459402260546 32338.736208337432
          80235.87497860125 70004.55486745789 1688.9904325116836 71395.22985178328 33398.7698732422 36820.66708765507
          2720.982869789629 35541.91730186159 69868.31889697598 35294.458043096914 31782.454695002452 15502.443103118738
          30787.82423004242 28046.61378775568 15375.466469552492 11706.827057634615 27350.93066028515 11462.700072277454
          38486.283428276714 20502.084637712727 38405.25830722505 34265.79223784284 20514.01817169967 18137.750872551926
          34189.425727523994 18146.908809300607 46982.66347924068 25175.853795585022 46976.16013700139 42702.48968163879
          25163.32936765759 22836.561192423753 42701.69124738443 22837.615071567066 54895.496175298285 29820.76759320344
          54906.48002134106 51030.38724481301 29779.88810956627 27484.450784149816 51024.75686601143 27452.6651660241
          62607.935225055146 34796.117670751686 62669.1292624854 58777.91748968796 34785.44552522461 32197.81171854391
          58711.654760399986 32141.45882048018 81041.64518009507 36254.22772673536 81421.71492744502 70004.55486747835
          36839.333116010195 36820.66708767425 70048.51799671695 36975.15159494707 81020.49332383525 -6803.531615171696
          64263.21824012207 6901.551056039814 32338.73620838509 -3898.845940199412 80235.87497864143 71395.22985183382
          1688.99043255453 35034.07526499979 7021.21763015633 62893.693210462035 33398.76987327432 35541.91730190813
          2720.9828698200567 69868.31889701133 34409.14603722803 35294.45804312964 55295.570843921254 4978.709465447541
          59369.219060553296 5543.080076639346 30090.21982445156 4842.6853881263605 54977.06099954521 32359.72364272004
          5487.05936251824 58893.71853096711 29862.95286360295 32093.9630208664 46962.00485193721 3445.8511203026364
          51065.07915298801 4129.362742199383 25209.89716332499 3409.2601888924155 46974.09482988226 27599.806213004296
          4047.343630868511 51037.56832301248 25197.646686592416 27545.0412423511 38331.40928356046 2525.983670153415
          42649.52094556586 2980.960237051828 20344.28959626815 2584.5445231160925 38480.00789483335 22824.593680308397
          2974.988336496345 42686.402582365605 20447.869328385932 22840.048548430528 31066.839526533782 3537.5870889391263
          34155.9165345759 2359.562568743898 14751.40943715521 3785.252398160869 32146.740169651923 18079.572701482768
          2366.761601413309 34300.337546510505 15415.192413325149 18155.382723784773 27563.50489833783 6882.198312904757
          12299.410714635931 6342.601380487085 28551.15665444776 12523.438126482062 96308.48308864042 -5669.6214468791295
          -21992.2519936245 92213.79793994082 35255.723675096444 -15478.397009175023 25604.49094084819 93167.6055447069
          98266.76753454657 4955.885341230195 -7594.732361045497 95826.33012365311 29338.322235455977 42890.46760486748
          -2330.36384360579 35576.50242969891 96270.99399286113 38431.01862302277 86456.5362860672 -1549.094706432954
          -19433.14033008838 83473.98432475877 31540.794619219218 -12960.261997113448 21752.295196027204 82958.94427202328
          101397.56671995056 6166.546802240817 -10337.161790723883 97613.18027763675 24731.214336146924 43083.52050231245
          -3772.95349566856 33164.74163044139 97876.99846155698 36578.75486992918 64377.73671723563 7629.63027973678
          -12689.756197032926 63560.571818382174 25671.23291660734 -6762.997920542532 15977.736769585052 60829.14859703115
          84476.59919331718 11687.518559905984 -7262.782814717608 82036.5381783494 17575.40429715473 37467.63716819408
          -1059.96643949797 27323.89169221495 80563.90789328326 29688.984737291707 36737.55341562418 18400.78319271222
          -5027.9086432803415 38953.11367817537 18179.43529124135 260.72927823619966 8815.282655082672 33564.30547362957
          57738.11008316748 20132.179163954985 -2369.5670780545233 57901.81303348752 8765.19751356804 28964.72386543108
          3218.653715240089 18913.76688513829 53849.117491385055 19681.52951073436 14715.375313616798 27542.352699216437
          1534.6435246444262 19298.630850864283 12530.001615256504 6296.377534691755 3351.9295847009525 11773.614373757759
          30813.25310628874 28501.612712604536 2355.372106787415 33854.264236383504 1970.2883511713546 20531.594340906267
          7357.25441213197 10662.534539433982 27142.170625000457 9807.428886414737 13904.230225892803 33190.98268432874
          4987.212165695075 18716.29928284532 14806.143684101557 9631.400720815182 5164.624150314874 10500.962780385325
          3379.0501766449293 96308.48308866278 -5669.6214468495355 35255.72367511861 -4874.787450881544 97081.25049103994
          98266.76753457147 4955.88534125393 36024.99128336303 42890.46760488917 5536.131724110971 99016.42340450834
          43693.946590872234 86456.53628608095 -1549.0947063912802 31540.794619241628 -1185.703331478835 87114.0343050691
          101397.56671996976 6166.546802277694 32016.32171440044 43083.52050233599 6579.634168633857 102627.16552340385
          44147.12162419192 64377.73671724095 7629.630279783619 25671.232916627298 7814.289987204817 64240.688484374434
          84476.59919332564 11687.518559951792 25752.33443408235 37467.63716821575 12022.905299233715 85178.8039538816
          38198.0797294924 36737.55341562526 18400.78319275152 18179.43529125593 18600.41859497617 35493.940935350416
          57738.11008317007 20132.17916400053 17838.089583623623 28964.72386544911 20635.22855557518 57528.79589275411
          29329.153270242732 14715.375313615454 27542.352699237425 12530.001615262872 27838.935475762773 12699.985383148396
          30813.253106287968 28501.612712635615 11989.188765442519 20531.59434091675 29280.308457825762 29736.0942696297
          20650.530519094416 13904.230225891406 33190.98268433843 14806.143684103818 34050.14603948343 12018.834408323753
          14514.811399694338 19298.630850886995 1534.6435246625495 18716.29928285714 4987.212165703525 3351.9295847201947
          6296.377534702152 11773.614373764325 5164.624150323423 9631.40072082084 10500.962780389233 1970.2883511786595
          3379.050176648125 38953.11367821989 -5027.908643250865 33854.26423641585 2355.3721068118857 8815.28265511886
          260.72927825264014 33564.30547364273 10662.534539461622 7357.254412143899 27142.17062500854 8765.197513582028
          9807.428886423972 63560.57181844096 -12689.7561969989 57901.81303354258 -2369.567078022944 15977.73676963085
          -6762.997920521673 60829.14859705207 18913.766885180754 3218.6537152589044 53849.117491402416 17575.404297175017
          19681.5295107516 83473.98432482718 -19433.14033005168 82036.53817841396 -7262.782814681732 21752.295196078514
          -12960.261997090904 82958.94427205544 27323.891692264806 -1059.966439475791 80563.90789330968 24731.214336173023
          29688.98473731563 92213.79794001074 -21992.251993590206 97613.18027770895 -10337.161790685706 25604.490940898017
          -15478.397009152628 93167.6055447488 33164.74163049446 -3772.953495644142 97876.99846159568 29338.322235485837
          36578.75486995861 95826.3301237209 -7594.7323610088715 35576.50242974866 -2330.3638435799676 96270.9939929056
          38431.018623055475 -107686.1639232744 -107686.16392325662 -67240.04676842508 -67240.04676839603 -107977.11397237261
          -100330.02058794966 -100330.02058793261 -67530.99681751762 -58315.33115114028 -58315.33115111704 -100389.954687074
          -58375.26525026152 -95337.47437455742 -95337.47437453984 -59074.18783026174 -59074.187830222785 -96193.84653461096
          -93674.37609529718 -93674.37609527919 -59930.55999030458 -55665.997684972746 -55665.99768493843 -94196.34209436948
          -56187.963684036884 -66461.95507270496 -66461.95507269101 -38480.35218848655 -38480.352188444514 -68141.44600718675
          -73190.3321125935 -73190.33211257942 -40159.84312295429 -41126.91906542245 -41126.91906538194 -74381.11043362982
          -42317.69738644555 -31666.81550850771 -31666.815508498483 -13594.155467700868 -13594.155467666193 -34313.292070167576
          -41834.35510980143 -41834.35510979284 -16240.632029348006 -18764.07266226959 -18764.072662231283 -44002.55865773131
          -20932.27621018461 -3464.815562723085 -3464.8155627178694 6794.648334826632 6794.648334845455 -6873.723816697892
          -11021.642171622872 -11021.642171616997 3385.7400808586285 3364.277941864602 3364.277941891662 -14146.391747014719
          239.52836648334886 7543.308250112609 7543.308250114622 16593.765443465512 16593.765443473556 3850.2413175535685
          12900.698510909488
        </DataArray>
        <DataArray type="Float64" Name="disp_x" format="ascii" RangeMin="-0.0011901565255242439" RangeMax="0.0011901565254985994">
          -0.000003610799835529084 0.0002864401238855735 -0.00028644012406979724 0.0000036107996637431087 -0.0000037062663239600084 0.00027403972988967237
          -0.0002740397301228287 0.000003706266116632347 0.0001447529523480939 -9.208644480548643e-14 -0.00014475295252609118 -8.580908087861786e-14
          -0.000008303658022873706 0.00026284629232201654 -0.0002628462925309286 0.00000830365783304429 0.00013132107344730122 -1.1656416210313205e-13
          -0.00013132107366764528 -1.0368521263578212e-13 -8.896146624913855e-14 0.00012614459977353774 -1.0443657359790273e-13 -0.0001261445999729046
          -9.481539002704715e-14 -1.1019069266598643e-13 -9.963259684264918e-14 -0.000005947353730395786 0.00032452574019555376 -0.0003245257403308389
          0.0000059473535951167655 0.0001580383495724711 -6.76268684964425e-14 -0.00015803834970787677 -6.762427483853653e-14 -0.000013425028892651117
          0.0002920628982414623 -0.00029206289840102794 0.000013425028739170292 -6.768293670313741e-14 0.0001324144361370696 -7.97670191347705e-14
          -0.00013241443629365642 -7.671725550405575e-14 -7.82759438160259e-14 -0.000009203167887631579 0.0003551075638817654 -0.0003551075639713631
          0.000009203167787498117 0.000170616628733731 -4.47943530782797e-14 -0.0001706166288287581 -5.0071858120543015e-14 -0.000017282409500297134
          0.00032377769967593083 -0.00032377769978781713 0.00001728240938288156 -4.7487045746238066e-14 0.00014343861786063366 -5.592817337310078e-14
          -0.00014343861797541112 -5.86958528729419e-14 -5.736141502915425e-14 -0.000011139788149711396 0.0003786635744239763 -0.0003786635744733308
          0.000011139788081533884 0.00018118608382726963 -2.4675125719739047e-14 -0.00018118608388622615 -3.4095547530447177e-14 -0.000020804621404561572
          0.0003492724274164299 -0.0003492724274851171 0.000020804621320898674 -2.944658153504101e-14 0.0001532759796934401 -3.4330510076787525e-14
          -0.00015327597976978665 -4.184203632856402e-14 -3.8152596133858866e-14 -0.000014508445874388845 0.0003948774048315013 -0.0003948774048476483
          0.000014508445833756288 0.00018627493255065142 -8.082120339319264e-15 -0.0001862749325792654 -2.04057311884119e-14 -0.000023707587511540535
          0.00036812562684437986 -0.0003681256268762633 0.00002370758745773671 -1.4316748588117764e-14 0.0001602692076406498 -1.592654922494728e-14
          -0.0001602692076836511 -2.6914238365783054e-14 -2.1474947515989227e-14 -0.000016582349252101562 0.0004036959779661955 -0.00040369597795673515
          0.00001658234923375477 0.00018968835280183544 4.722876581200034e-15 -0.0001896883528062879 -9.074401979209631e-15 -0.000023635123288565324
          0.0003792555246171179 -0.0003792555246195317 0.000023635123259755365 -2.134802837458809e-15 0.00016668655918683544 -1.1949523527020434e-15
          -0.0001666865592026117 -1.4470645531346096e-14 -7.901061173184726e-15 0.000005562332503318046 0.0000010377047963240558 -0.0000010377052274806017
          -0.0000055623329512428925 0.0000026791546433006806 -0.000010748883753824164 0.000010748883360901238 -0.000002679155053023175 0.0000021685058214691105
          -2.1557323600171478e-13 -0.0000021685062609993904 -2.2396564844595408e-13 0.000007042159000519024 -0.0000012511281563470047 0.0000012511277443373836
          -0.000007042159429329242 -0.000004764613824875476 -1.9646100772422324e-13 0.000004764613423564171 -2.0485960140200373e-13 -2.1977379524533613e-13
          -3.492526859976634e-7 -2.0601666354256325e-13 3.492522655769333e-7 -2.1441328590043275e-13 -2.006518326568073e-13 -2.102074576385472e-13
          0.000003463457848316978 0.0000037389305917282578 -0.000003738931061153505 -0.0000034634583345550774 0.0000035125823340706634 -2.3471934441669844e-13
          -0.000003512582811894426 -2.431186843526978e-13 0.000004375297213321305 0.0000022988321710384327 -0.000002298832621305181 -0.000004375297680409656
          -2.389145878658911e-13 0.0000027912520886389285 -2.2513181183303876e-13 -0.0000027912525473344986 -2.335495104815212e-13 -2.293452300591095e-13
          0.0000032387089613053027 0.000005714001779505635 -0.000005714002287270806 -0.0000032387094857921465 0.000004633602768221642 -2.5384353582291774e-13
          -0.000004633603284310598 -2.622557872246918e-13 0.0000033942128160529336 0.000005009216269507361 -0.000005009216758073161 -0.000003394213321390191
          -2.5804870318824817e-13 0.000004197366434700551 -2.443002773873518e-13 -0.0000041973669316668956 -2.52670683488664e-13 -2.484820332023354e-13
          0.000005560223275248769 -0.000003159069211355644 -0.00003915935621575762 -0.0000401201218094562 -8.711084824708799e-7 -3.0561891985467144e-7
          0.000007007377362703897 -0.00000346695227241077 -0.000012774370346033175 -0.00003615258546095435 -0.000023690315577431183 -0.0000124511123715365
          0.0000015870840977391362 -0.000012161153653981038 -0.000005857515498739607 0.000004671957105769585 -0.00001739844022435318 -0.000004731387092957433
          0.000007927451898745543 0.000010142127409100992 0.000008377561982501999 0.000006775288820582488 0.000005808862089306329 0.00000711070732389491
          0.0000033483545553712643 0.000005949813781556816 0.000004278908054895889 0.0000031153234756926355 0.000006181556906905809 0.000003867579352243923
          0.000008120227756708689 0.000015216902930274375 0.00001191977682773398 0.000010345170866833276 0.0000056704428969618505 0.000008081393043178746
          0.00001342820344263616 0.000008178023019275354 0.000010286913692514231 0.000009086662195972726 0.000005791384962332825 0.000007271160877064365
          -0.000015216903437996764 -0.000008120228281170358 -0.000010142127878527776 -0.00000792745238497304 -0.000011919777343830102 -0.000005670443421453234
          -0.000010345171374551486 -0.000013428203931201526 -0.000008081393548545963 -0.000008377562460335151 -0.000005808862575539091 -0.000006775289290003611
          -0.000008178023535381411 -0.000010286914189491041 -0.000005791385467691725 -0.000009086662684546783 -0.000005949814259397554 -0.000007271161374038861
          0.0000031590687802233073 -0.000005560223723176563 -0.0000033483550056521897 -0.000007110707790993717 8.711080429124299e-7 -0.00000700737781063994
          3.0561848870203433e-7 -0.000004278908513604677 -0.000006181557373998712 -0.000003115323925972697 -0.0000015870845372891977 -0.0000038675798109428555
          0.00004012012141651305 0.00003915935580600907 0.000012774369934001578 0.000003466951843584546 0.00003615258505959818 0.000012451111961803532
          0.000023690315184499877 0.000012161153233536499 -0.000004671957534579124 0.0000058575150867164214 0.000017398439823027562 0.000004731386672523352
          0.000021102285910416143 -0.000021102286387737187 0.000012161898472839701 -0.000012161898911878543 0.000014231986427246487 -0.000014231986889862504
          -2.3865899777572415e-13 0.00003462652813281341 -0.00003462652859097281 0.000005805390339796401 -0.000005805390764158492 -2.1951423374382498e-13
          -2.3131008597115197e-13 0.0000202470352946537 -0.000020247035738166652 -2.290847422624783e-13 -2.1217939937072875e-13 -2.217520958256887e-13
          0.000004275276504188315 -0.000004275277019788163 0.0000041356568885203336 -0.000004135657389412646 -2.5779831365119333e-13 0.000012122227794817006
          -0.00001212222829124457 -2.504484806192969e-13 0.000008397538662253512 -0.000008397539144014297 -2.4823116010880226e-13 -2.4087838929166357e-13
          -8.590523357155442e-7 8.590517818080231e-7 9.87743283121386e-7 -9.877438222932117e-7 -2.7696973547989007e-13 0.0000011210560209289483
          -0.0000011210565556342636 -2.6958384521627123e-13 0.0000023220523732079937 -0.0000023220528932757485 -2.673622613959075e-13 -2.600319120466095e-13
          0.00004605027673160085 0.000008847750416008577 0.000026467002643791116 0.00003412852210980247 0.00004371431323569369 -0.00000538053930603233
          0.000003614851962697993 0.000021303299388103124 0.000024875239988012405 0.00004648829063277915 -0.000005287419492654546 0.000027089191067057918
          0.000008431996121814507 0.000009780979938854826 0.000006517862128772855 0.00002194835436393217 0.000006929733262366564 0.00001605766457212097
          0.000018227368410974098 0.000012869857636706023 -0.0000027521088320005757 0.0000023241610281071054 -0.0000017479944706147025 0.0000015936156750562789
          0.0000016734938515412604 0.000005732974615936175 0.0000015165681054932049 0.000004016092793408054 0.000002752108278043232 -0.00000843199663744975
          -0.0000023241615672935513 0.0000017479939166767052 -0.0000015936162097870864 -0.000009780980439735481 -0.000006517862644380359 -0.000001673494390720945
          -0.000005732975135987996 -0.0000015165686402266512 -0.00000692973376325518 -0.0000040160933134675005 -0.000046050277208868464 -0.000021948354860374833
          -0.000026467003106436304 -0.00003412852258708861 -0.00001605766505388757 -0.000018227368907405082 -0.000021303299850731205 -0.000012869858118472649
          -0.000008847750854986665 -0.00004371431369385362 0.00000538053888165583 -0.0000036148524016979762 -0.000024875240431529125 -0.000046488291090928955
          0.0000052874190682814145 -0.00002708919151057663 0.000005123570953468941 0.000010515012187151943 -0.000010515012187063403 -0.000005123570953254862
          0.00001701460950532578 0.00002793004904304958 -0.000027930049042743355 -0.00001701460950461735 0.000011934282794438059 4.295889939000545e-17
          -0.000011934282794294607 9.79846164931989e-17 0.000007665501543532842 0.000019862394055578868 -0.00001986239405536928 -0.00000766550154304238
          0.00004604870338959149 1.5232095193165856e-16 -0.00004604870338912746 3.5414295317264975e-16 6.433308731812027e-17 0.000027348068517090906
          1.0243707595552533e-16 -0.000027348068516768532 2.3787446568256e-16 2.186958215459045e-16 1.5168418340233146e-16 0.000006171298837050786
          -0.000006171298837035891 0.000005277663101417875 -0.000005277663101320113 0.000008077959628497509 7.133176585018413e-18 -0.000008077959628447017
          0.000006464657295155833 -0.0000064646572950978364 0.000015689698284487038 4.9435298108020926e-17 -0.000015689698284296662 2.2901937304313706e-17
          0.000012218020485312742 2.788140662950508e-17 -0.000012218020485189883 9.374358855059571e-17 6.037622236748553e-17 0.0000055204924467016735
          -0.000005520492446754057 -0.0000017792288985819888 0.000001779228898537536 0.000005717564860541859 -2.7039313694402804e-17 -0.000005717564860556924
          0.000001834074774002865 -0.0000018340747740642465 0.0000010583979591673392 -2.275999234958089e-17 -0.0000010583979591413103 -8.164954213532845e-18
          0.000003846514452916601 -3.041056856021e-17 -0.000003846514452917004 1.3416582453908712e-17 -1.149073914026748e-18 -0.000039899310194134835
          0.000015919903301770776 0.000013215823369855545 0.00006012726320323739 0.000003622827591445703 0.00001539027728326872 -0.000011132855205002864
          -0.000009436430715132074 0.00003714669923428704 0.00005933703038274004 0.00004491575694579846 0.0000055336087414761105 0.000011151829434100462
          0.00003371422498764554 0.00002984426529770207 -0.000007205225699591078 0.0000620815913876469 0.000036550719071634 0.00001442052592402434
          0.000009980943590474075 0.00001576362530512256 0.000010817285405696426 0.000014943113077777643 0.00002824876806256992 0.000007955335177740935
          0.000012648888761079117 0.00002346098687063045 0.000010727796422389418 0.000023494056059189214 0.000018771521489569176 0.000011965800590109628
          -0.000005260983314853022 0.000013824282257027264 0.000009699753531684627 0.00000343558347996631 0.0000012006493219429254 -0.0000032566858271104828
          0.000010169461069854971 0.000009016337804132131 0.000002724497738760409 0.0000013595664359041763 0.000006475726532254788 -0.000011965800590163735
          -0.000014420525923998686 0.000005260983314796757 -0.000009980943590372729 -0.0000138242822570342 -0.000010817285405679003 -0.000009699753531740018
          -0.0000034355834800224574 -0.000014943113077710882 -0.0000012006493219147542 -0.000007955335177644069 0.0000032566858270585283 -0.000010169461069865822
          -0.000009016337804127959 -0.000010727796422327036 -0.0000027244977388183397 -0.000001359566435876695 -0.000006475726532253315 -0.000015919903301653272
          -0.00006012726320289572 -0.000015763625305058416 -0.00001539027728316798 -0.00003714669923405904 -0.0000282487680623754 -0.00004491575694548158
          -0.000012648888761021716 -0.00002346098687049395 -0.000029844265297485715 -0.000023494056058996057 -0.0000187715214894416 0.000039899310194317313
          -0.000013215823369196394 -0.0000036228275912818664 0.000011132855205219595 0.000009436430715583693 -0.000059337030382250966 -0.00000553360874081704
          -0.000011151829433940547 -0.00003371422498729889 0.000007205225700051067 -0.00006208159138715538 -0.00003655071907129324 0
          0 0 0 0.000004107815644113504 0 -0.00000410781564411116
          0 0 0.000005175224744170095 0 -0.00000517522474420317 2.0163672431358967e-19
          0.000004360816864458252 0 -0.000004360816864470608 -1.754346148492177e-17 -6.7901224884867e-18 0
          0 0.0000053959793828952796 0 -0.000005395979382863546 0 0
          1.3484748374115593e-17 0.0000045359561729839864 0 -0.0000045359561729675235 7.070016941850837e-18 0
          0 -0.0000029864987684564393 0 0.0000029864987684858495 0 0
          3.5269144927391185e-18 0.000004603387393324975 0 -0.000004603387393278708 1.8484035559363822e-17 0
          0 0.000012859779655979888 0 0 0.000020121465202747183 0
          0.000007699135065860855 0.000013759505081382337 0 0.000010891527286243366 0.000008339161946564741 0
          0.000008953934967119978 0 0 0.0000074722681022536 0.000010778546300360644 0
          0.000007472032927861515 0 -0.00004144467316763446 0 0 -0.00001720426778915424
          -0.0000036207423941518584 0 0.0000028417782555700316 0 0 0.000041444673167758507
          0 0 -0.000008953934967062842 0 0.0000172042677892225 0.0000036207423942416023
          0 -0.000007472268102212978 -0.000002841778255507551 0 0 -0.000012859779655966114
          0 -0.000010778546300325885 0 -0.00000769913506585409 -0.000007472032927839046 0
          0 -0.0000201214652027704 0 -0.000013759505081387149 0 -0.00001089152728627076
          -0.000008339161946574633 0.000351710001974188 -0.0003517100021385077 0.0002646586680076981 -0.0002646586681999881 0.00016787213366902245
          -8.213471602715187e-14 -0.00016787213383700198 0.00030981803727369846 -0.00030981803745231155 0.00012488358240638555 -9.613202771271673e-14
          -0.00012488358260632015 -8.396573456128426e-14 0.00014816396277184167 -8.928409737443432e-14 -0.00014816396295596663 -9.995198232951986e-14
          -9.203872392645483e-14 0.0004175180562778531 -0.0004175180564127725 0.00019743357690986543 -6.742632281925386e-14 -0.00019743357704500282
          0.0003889908552704651 -0.0003889908554201435 -6.754907503673519e-14 0.00018430769676113957 -7.48094728471619e-14 -0.0001843076969127559
          -7.578045012599806e-14 0.0004649074120954612 -0.000464907412201354 0.00022129266778758353 -5.29161385310911e-14 -0.00022129266789065199
          0.00044441049998189183 -0.00044441050010215474 -5.1509167709178044e-14 0.00021138389525830525 -6.010177321880873e-14 -0.0002113838953771719
          -5.941169776615605e-14 0.0005002100117747712 -0.0005002100118534766 0.00023830254818142776 -3.9333081193878725e-14 -0.00023830254825490477
          0.0004855490092918661 -0.000485549009383847 -3.671364044272473e-14 0.00023189389244128588 -4.5967230683827344e-14 -0.0002318938925291632
          -4.391595558101874e-14 0.0005249957514697149 -0.0005249957515242562 0.0002533414861367782 -2.7256947182235764e-14 -0.00025334148618453575
          0.000515891223500731 -0.0005158912235669295 -2.386323246580865e-14 0.0002469745740031219 -3.308229924279034e-14 -0.000246974574063148
          -2.999959605275456e-14 0.0005351973093427083 -0.0005351973093769192 0.0002491131775437893 -1.7104467182358702e-14 -0.00024911317756983543
          0.0005335660299072325 -0.0005335660299511108 -1.3015336345871386e-14 0.0002570913408286788 -2.1922956504803353e-14 -0.00025709134086513807
          -1.8217214760109816e-14 -0.0007852309532392927 0.00007701310035650592 -0.0005993443322775721 0.000033912539139737944 -0.0005782939451493971
          -0.0003395270734158139 0.00004593213906712092 -0.0007065118967632386 0.000047744358880368256 -0.00043925339837332106 -0.0002739449641295797
          0.0000226160136493953 -0.00027041684890532304 -0.0005121796993882942 -0.0003150922834502622 0.000033351494879356305 -0.0002069655099665998
          -0.00024263530840746208 -0.0009175937702472365 0.00008953768714196162 -0.0006814869098493197 -0.0003954406930539941 0.000052946259138056897
          -0.000869141787259027 0.00006689181222982537 -0.000316394910503761 -0.0006370005408461536 -0.000382247490483774 0.000044018991050835694
          -0.0002981254413180485 -0.0010179048045830385 0.00009418073631834516 -0.0007573827278099442 -0.00044185302718879535 0.00005466064042300577
          -0.0009843410640492187 0.00007264913120446636 -0.000354349181998261 -0.0007245079718277875 -0.0004345044708535469 0.00004710037478577631
          -0.00034071419386236176 -0.001095222649100196 0.00009778899730298726 -0.0008149306328245953 -0.00047700105249276963 0.00005625427523190679
          -0.0010740649236755959 0.00007494438045448577 -0.0003815915084509236 -0.0007910988162541972 -0.0004764236738410181 0.000047906140528186396
          -0.00037369366413409497 -0.0011482626108597607 0.00009969848149320014 -0.0008545899678810452 -0.0005049434079811279 0.00005592066641118904
          -0.001141147114850105 0.00007574386413932567 -0.0004057919426735205 -0.0008407304955162105 -0.0005085562366186963 0.00004784428220493571
          -0.0003981204518330672 -0.0011766976650981588 0.00009828948901013324 -0.0008749836545354054 -0.0005077004121052232 0.000055828612782383675
          -0.001179945060375377 0.00007885587037108738 -0.00039995166207954576 -0.0008689685782186413 -0.0005248516536936415 0.00004969018732218551
          -0.0004135562833679932 -0.00009828948902849457 0.0011766976650638865 -0.00009969848153388737 0.0011482626108051072 0.000507700412078891
          0.0008749836545011605 -0.000055828612800731195 -0.00007885587039995041 0.001179945060331395 0.0005049434079332883 0.0008545899678264553
          -0.000055920666451848325 0.00039995166205342755 0.0005248516536571087 0.000868968578174729 -0.000049690187351006135 0.0004057919426257458
          0.0004135562833315129 -0.0000977889973712749 0.0010952226490213114 -0.00007574386419319741 0.0011411471147837495 0.0004770010524190901
          0.000814930632745821 -0.00005625427530011573 0.000508556236558486 0.000840730495449958 -0.00004784428225875706 0.00038159150837738714
          0.00039812045177297967 -0.00009418073641858273 0.0010179048044769324 -0.00007494438053823121 0.001074064923583393 0.00044185302708554016
          0.0007573827277039868 -0.000054660640523172474 0.00047642367375296137 0.000791098816162124 -0.00004790614061189118 0.00035434918189511714
          0.0003736936640461511 -0.00008953768727735924 0.0009175937701120551 -0.0000726491313219865 0.0009843410639287105 0.00039544069291868846
          0.0006814869097143109 -0.000052946259273366697 0.00043450447073448763 0.0007245079717074289 -0.00004710037490323136 0.0003163949103685339
          0.00034071419374342136 -0.00007701310052840011 0.000785230953074729 -0.00006689181238343336 0.0008691417871090823 0.0003395270732476344
          0.000578293944984984 -0.00004593213923894211 0.00038224749033199923 0.0006370005406963631 -0.00004401899120436454 0.00027041684873724373
          0.00029812544116635605 -0.00003391253934722085 0.0005993443320850655 -0.000047744359070326216 0.0007065118965843975 0.0002739449639295788
          0.00043925339818093735 -0.000022616013856777462 0.00031509228326591967 0.0005121796992095924 -0.00003335149506923992 0.00020696550976660188
          0.00024263530822323336 0.00012319081705756526 -0.000007542264611202806 0.0000075422646119291 -0.00012319081705469673 0.000060145115631948834
          3.490331814497782e-16 -0.00006014511563012026 1.4164068453775773e-15 0.00008713526856965007 -0.0000053036090071125034 0.000005303609007487597
          -0.00008713526856805674 8.994962827473594e-16 0.00004877007994567209 1.7640894378197878e-16 -0.00004877007994463442 7.729218104094466e-16
          4.90952879468472e-16 0.00016280645947285225 -0.00000805991993676157 0.000008059919938663058 -0.00016280645946657987 0.00007792977078912356
          9.400785659989357e-16 -0.00007792977078498322 3.123569620531908e-15 0.00014212756945938872 -0.000007657921077600536 0.000007657921078830633
          -0.00014212756945495043 2.0572802689082478e-15 0.00006852922334218063 6.045238711835136e-16 -0.00006852922333929414 2.206044442249449e-15
          1.4266176370982398e-15 0.00020187332438170716 -0.00000904230515334357 0.000009042305157073165 -0.0002018733243711642 0.00009646693790375394
          1.8560711719025317e-15 -0.00009646693789655624 5.264402369272141e-15 0.0001823333230220747 -0.000008526185470120318 0.000008526185472855184
          -0.00018233332301376113 3.587142646369419e-15 0.00008715662386617334 1.3555047335575495e-15 -0.00008715662386059208 4.1436468567435695e-15
          2.7793983869350676e-15 0.0002432684830573809 -0.000009797694539119975 0.000009797694545355165 -0.0002432684830418636 0.00011434770948612151
          3.107408581782189e-15 -0.00011434770947516592 7.749851002084682e-15 0.00022218176137350104 -0.000009510920924004305 0.000009510920928903014
          -0.0002221817613605571 5.466879200245293e-15 0.00010568548171581026 2.4371714311401255e-15 -0.00010568548170682131 6.459701231034306e-15
          4.484797011799863e-15 0.0002879818856080356 -0.000009630124943694091 0.000009630124953165652 -0.00028798188558684884 0.00012769047799499002
          4.7246300049550906e-15 -0.00012769047797958123 1.0583711578927531e-14 0.0002650651242172482 -0.000009501494635901593 0.000009501494643663456
          -0.0002650651241989761 7.694487621264111e-15 0.00012241317252869688 3.8700296954431556e-15 -0.0001224131725156047 9.12533296799705e-15
          6.536063800522248e-15 0.0002988114473919739 -0.000006588698400202351 0.000006588698413709527 -0.0002988114473644878 0.00014222263954021848
          6.769298775921249e-15 -0.00014222263951959327 1.3737199044809314e-14 0.0002975911085115112 -0.000008308363468722655 0.000008308363480106867
          -0.0002975911084872541 1.0323192427368126e-14 0.0001330168541623034 5.685735802716453e-15 -0.00013301685414438384 1.2118388870710208e-14
          8.95196570120913e-15 -0.000004269354179685915 0.00009720032057328097 -0.00009720032097720607 0.000004269353804866889 0.00004991713304958629
          -2.0195498615648015e-13 -0.000049917133438983174 -1.8740262939681318e-13 -0.000002914048538619065 0.00006728546714396086 -0.0000672854675654161
          0.0000029140481463769304 -1.9468959013339508e-13 0.000039937484215133166 -2.1072700475687787e-13 -0.000039937484621987784 -1.9611451474551432e-13
          -2.0342321345733215e-13 -0.000004819955873578568 0.00013575176778650352 -0.00013575176815545473 0.000004819955533372514 0.00006683706649044725
          -1.844663949728795e-13 -0.00006683706684507742 -1.7009562617085894e-13 -0.000004354527304219742 0.00011586841458276965 -0.000115868414969163
          0.000004354526946751639 -1.7730664697222743e-13 0.000057898552559098466 -1.9319337531692825e-13 -0.00005789855293108953 -1.7872549710243003e-13
          -1.8599200878742848e-13 -0.000005832317063623563 0.0001752076207740257 -0.000175207621108058 0.000005832316757650683 0.00008496632755595431
          -1.6699865594450825e-13 -0.00008496632787599751 -1.5296338836292333e-13 -0.000005316927205874079 0.0001555249507205218 -0.00015552495107193828
          0.000005316926882847622 -1.6001725800035854e-13 0.0000757760392304431 -1.7570355837952432e-13 -0.00007577603956771692 -1.6150159733347054e-13
          -1.6862960246003974e-13 -0.000006612438822650082 0.0002165853821381058 -0.0002165853824377076 0.000006612438550355418 0.00010283553036338121
          -1.497854351436294e-13 -0.00010283553064938988 -1.3612389485055525e-13 -0.000006299599334900681 0.00019556632478846505 -0.00019556632510522062
          0.000006299599045866252 -1.429992113336366e-13 0.00009413279096231905 -1.5836697517323606e-13 -0.00009413279126529175 -1.445064798924833e-13
          -1.5147502459492008e-13 -0.000006548227080745604 0.00026090381016185464 -0.00026090381042773186 0.000006548226841385904 0.00011659540441003499
          -1.3292772390129868e-13 -0.00011659540466274907 -1.1966801128592272e-13 -0.00000638187016045306 0.00023822378286686706 -0.00023822378314952274
          0.000006381869904721101 -1.2633653983326672e-13 0.0001110067248881156 -1.4130914263208385e-13 -0.00011100672515739029 -1.2784881871836835e-13
          -1.3462486828117183e-13 -0.0000052912864685373985 0.0002713063722488956 -0.00027130637249828105 0.000005291286245312218 0.00012223965393507862
          -1.2467479543484526e-13 -0.00012223965417146188 -1.1160025348389932e-13 -1.1817826703715234e-13 -0.000046405215877750504 -0.00012733499316320556
          -0.000014855773656892516 -0.00002647816205517119 -0.00008596129103298573 -0.00007359756332271993 -0.000011166277776214368 -0.000026099792810717814
          -0.00008526065059974843 -0.00003251012358537552 -0.000048564859280996215 -0.000016289524733924328 -0.00005308455783891928 -0.000054325907410185
          -0.00001589060945324532 -0.000033120704620272504 -0.00008136257836645057 -0.00020738266439409263 -0.000012258126722350534 -0.00004349677292760969
          -0.0001440047803693417 -0.00010999084266699136 -0.000009220959894501426 -0.00006498293369595681 -0.00017108523543139044 -0.000013874006149192844
          -0.00007646618541303829 -0.00003553228107787177 -0.00011699268763019121 -0.00009193921476648025 -0.000009511680549725975 -0.00006310246731924592
          -0.00010807677773344835 -0.0002711735091247213 -0.000015144823020473834 -0.00005704465582795871 -0.00018952941588750507 -0.00014317878497798741
          -0.000010624744317927165 -0.00009525770179553726 -0.00024036919327625984 -0.000013533238401645373 -0.00010000824242221373 -0.0000505065669747621
          -0.0001675716490589214 -0.00012684444783695346 -0.000009653364591320642 -0.00008854174842633252 -0.00013515806871667297 -0.00033382718761994473
          -0.000018530179461109947 -0.00007033906037664611 -0.00023495790512527897 -0.00017652653661365665 -0.000011756674697252341 -0.00012081593354175752
          -0.00030154856957987394 -0.00001718890169842231 -0.00012340211034616693 -0.00006346203477724423 -0.00021121842916054434 -0.00015943180085131284
          -0.000011561086322678853 -0.00011134941634302904 -0.00018021683811937734 -0.00042265800240400946 -0.00001169352524740952 -0.00009049171177796832
          -0.00030466309212996305 -0.00021893460324371187 -0.0000051960091417935605 -0.00015381015912068578 -0.0003726722447428883 -0.000017626130696496005
          -0.00015660569570841507 -0.0000788712544629836 -0.0002644352551364845 -0.0001955316571335794 -0.000010119372378124391 -0.00013769285437026342
          -0.0002185001747286987 -0.000499847693508152 0.000005109665072989746 -0.00010704138665246044 -0.00036417376565289533 -0.00024685412528237
          0.000005875303686860446 -0.00018100619607182628 0.000046405215519653 0.000026478161688700602 -1.7903872642787382e-13 0.000026099792435268617
          -1.832302639764711e-13 0.000016289524350063544 -1.877148250247547e-13 -1.919282974115482e-13 0.00008136257804281835 0.00004349677259566633
          -1.6180741225296452e-13 0.00006498293335514475 -1.6596101541823288e-13 0.00003553228072870873 -1.7039656442564438e-13 -1.7457303088444235e-13
          0.00010807677744378498 0.000057044655530115336 -1.4481705450719156e-13 0.00009525770148893285 -1.4891220160575735e-13 0.000050506566659934396
          -1.5327975341738334e-13 -1.5740287596103563e-13 0.00013515806846033755 0.0000703390601122974 -1.2816340751540095e-13 0.00012081593326882573
          -1.3216638704282132e-13 0.000063462034496237 -1.3645185329060371e-13 -1.404910775745804e-13 0.00018021683789550905 0.00009049171154632379
          -1.1192877711700492e-13 0.000153810158880677 -1.158062602211447e-13 0.00007887125421509036 -1.1998632014414873e-13 -1.2393210905178424e-13
          0.00021850017452070998 0.00010704138643682313 -1.0397031308460799e-13 -1.078032736395716e-13 0.000011693525007919906 0.00042265800218003915
          -0.000005109665296336885 0.0004998476933000095 0.0002189346030119199 0.00030466309190603323 0.000005196008902377117 0.0002468541250665839
          0.0003641737654448569 -0.000005875303910120892 0.00015660569547672375 0.00018100619585612694 0.000018530179188708654 0.0003338271873635219
          0.00001762613044063004 0.00037267224450272877 0.00017652653634917708 0.0002349579048688844 0.00001175667442489785 0.00019553165688555155
          0.00026443525489642394 0.000010119372122345163 0.00012340211008177176 0.00013769285412231185 0.000015144822714401308 0.00027117350883499474
          0.00001718890140927192 0.0003015485693068323 0.00014317878468003548 0.0001895294155978025 0.00001062474401190028 0.00015943180057019529
          0.00021121842888757985 0.000011561086033601757 0.00010000824212433497 0.0001113494160619799 0.000012258126382085285 0.00020738266407042825
          0.000013533238078523862 0.00024036919296957973 0.00010999084233496362 0.00014400478004567734 0.000009220959554258995 0.00012684444752204726
          0.00016757164875230956 0.000009653364268261954 0.00007646618508106916 0.0000885417481114727 0.000014855773282026407 0.00012733499280510573
          0.00001387400579164006 0.0001710852350904915 0.00007359756295619005 0.00008596129067489304 0.000011166277401375645 0.0000919392144172658
          0.0001169926872893522 0.000009511680192229751 0.00004856485891450534 0.00006310246697006043 0.00003251012319307845 0.000085260650224233
          0.00005432590702628876 0.0000530845574634352 0.000015890609060987302 0.00003312070423639536 -0.00006954982356502051 -0.000014075641643005158
          -0.00017861712014704607 -0.00004002559994548302 -0.000013959428916865112 -0.00010527137844570942 -0.00012679402662185777 -0.00004142570595854604
          -0.00003860270208578946 -0.00014375464476056434 -0.00007152885808487502 -0.000024482731751292474 -0.000018892238100291217 -0.00007555752875957944
          -0.00008394864861724499 -0.000047900831551462744 -0.00010367340213041269 -0.000019037851997068454 -0.0002604406939180381 -0.000056146811405783086
          -0.000014238407312585158 -0.00014064296901108138 -0.00018245705106556946 -0.00008901130560818908 -0.000019845638908223284 -0.00022823462702235858
          -0.00009826689957153988 -0.00004888174289572619 -0.0000138508961840158 -0.00012274249569526021 -0.00015746529725350886 -0.00008569783743238566
          -0.00012859440970443061 -0.00002326565789569155 -0.0003219024317666934 -0.0000688651755666414 -0.000016235317987904325 -0.00017269977485683002
          -0.0002252671769973344 -0.00011651537021723423 -0.00002134898851464059 -0.00029221970613925246 -0.0001206821025691983 -0.00006262357595721328
          -0.000015040153571164821 -0.00015667894762680577 -0.00020422617403620624 -0.00010961950173985043 -0.0001556278648302337 -0.00002669260015690621
          -0.0003844812545343121 -0.00008210265329736616 -0.000017338202248929022 -0.00020598038045011513 -0.0002705834689057963 -0.00014112762257033196
          -0.00002542119432771212 -0.0003520134488418849 -0.00014400980113876179 -0.00007518538778950658 -0.000017230292046685364 -0.00018879760193632697
          -0.0002466335686902144 -0.0001318938491893728 -0.00020281657169431312 -0.000018711502087437484 -0.00047638308717444196 -0.00010306589420506762
          -0.000009925067626434238 -0.00024946217871320845 -0.0003431498473635038 -0.00017497363547881785 -0.00002544462436250415 -0.00042431933672371644
          -0.00017836830636174637 -0.00009088754418024908 -0.000015421738781237212 -0.00022530261963424607 -0.0003009699377956097 -0.0001586500962654313
          -0.00029254736880674235 0.00003167987365186049 -0.0006636894910126152 -0.00013943731398949476 0.000020365394135553908 -0.0003062908749641399
          -0.0004860167886673288 -0.00024355668467434478 -9.299088587457238e-8 -0.000558089635851273 -0.00023116490794321707 -0.00012062641572143973
          0.0000021436531583532987 -0.00027848136493705797 -0.0004063164652621202 -0.00020404258602493277 0.00006954982356442958 0.00004002559994555149
          -3.109956508705916e-16 0.00004142570595818245 2.3042821211374767e-17 0.000024482731751312322 -1.969873690559556e-16 -5.959905495264305e-18
          0.00010367340212960973 0.000056146811406352536 -4.1331975260837625e-16 0.00008901130560742125 2.751450342386529e-16 0.000048881742895978216
          -3.92609644970893e-16 1.1418671039554434e-16 0.00012859440970401385 0.00006886517556832153 -2.1926750316422272e-16 0.00011651537021654361
          8.2966137280699065e-16 0.00006262357595825711 -3.5456069312864844e-16 5.116759946013516e-16 0.0001556278648308881 0.00008210265330083819
          3.164410891473782e-16 0.00014112762257036454 1.724519812503173e-15 0.0000751853877919942 5.26207866078908e-18 1.2333897302462206e-15
          0.00020281657169677746 0.00010306589421106086 1.2196980371051923e-15 0.0001749736354802823 2.9843211423651617e-15 0.00009088754418488797
          7.200418176167387e-16 2.3070603716290676e-15 0.0002925473688117814 0.00013943731399886875 2.5030894843155408e-15 0.0002435566846780068
          4.673161230300964e-15 0.00012062641572899919 1.8179866698519923e-15 3.7675190352338976e-15 0.0006636894910177992 -0.00003167987363824039
          0.00047638308717701553 0.00001871150209701984 0.0003062908749735909 -0.00002036539412199111 0.00048601678867242617 0.0005580896358550858
          9.299089739969531e-8 0.00024946217871934395 0.000009925067635956742 0.0003431498473660162 0.00023116490795262827 0.0002784813649447367
          -0.0000021436531469160856 0.00040631646526583843 0.0001783683063677902 0.00020404258603253701 0.0003844812545350598 0.000026692600163242713
          0.00042431933672531765 0.000025444624370410126 0.00020598038045371847 0.000017338202255217507 0.00027058346890649487 0.00022530261963900252
          0.000015421738789049272 0.00030096993779712386 0.0001440098011422796 0.000158650096270116 0.00032190243176636517 0.000023265657899515853
          0.0003520134488420457 0.000025421194332743334 0.00017269977485863234 0.000016235317991681634 0.00022526717699696073 0.00018879760193892477
          0.000017230292051630397 0.00024663356869029023 0.00012068210257092136 0.00013189384919190343 0.00026044069391731366 0.00001903785199905561
          0.0002922197061386764 0.000021348988517493535 0.00014064296901176258 0.000014238407314529695 0.0001824570510648045 0.00015667894762795174
          0.000015040153573943386 0.00020422617403555572 0.00009826689957214942 0.00010961950174093521 0.0001786171201465246 0.000014075641643770847
          0.00022823462702170806 0.00001984563890955578 0.00010527137844588615 0.00001395942891761348 0.00012679402662130104 0.0001227424956956036
          0.000013850896185282632 0.00015746529725278383 0.00007152885808498921 0.00008569783743267673 0.0001437546447603939 0.00003860270208619362
          0.00007555752875968207 0.000018892238100680053 0.00008394864861696065 0.00004790083155152521 -0.00038325140794892435 -0.000006037455927052118
          0.00007945020094333148 -0.0008566359278964353 -0.00018410517407938548 0.000046330831442887004 -0.00037260585956705363 -0.0006305492489775988
          -0.000340056841957813 -0.000011447420224341079 0.000047223434395660534 -0.0007765731935936228 -0.00029656962636889333 -0.00016392617482303726
          0.0000323665956059248 -0.0003489364535948759 -0.00056263762766589 -0.00026849040474017033 -0.0004476480103012716 -0.000008031472505151423
          0.00009258188822101162 -0.0009842388568672331 -0.00021259967950608126 0.00005390344949744404 -0.0004258513543627848 -0.0007308441957824412
          -0.0004205330317435366 -0.000016350122384316973 0.00006847017299850961 -0.0009402261386913297 -0.0003406558309860721 -0.0002002912771171822
          0.00004436173722159343 -0.0004154500301194133 -0.0006889260586373151 -0.0003239502729043678 -0.0004898496414997057 -0.000010915708852189926
          0.00009670124780007112 -0.0010726954790230001 -0.00023382643785942943 0.0000554815761978295 -0.00046689711410530547 -0.0007980986099140419
          -0.0004723638533815296 -0.00001977080559049449 0.00007430558444632471 -0.0010464868835448242 -0.00037438411998390585 -0.00022545486504240054
          0.000047615900819614476 -0.00046340509408393174 -0.000770200028186338 -0.0003633513128965369 -0.0005178584356021684 -0.000012336290222550477
          0.00009956654963390091 -0.0011339708788165208 -0.00024714202726945996 0.000056844103622586646 -0.000494714019360337 -0.0008437340654121531
          -0.0005071062973596908 -0.000022711459963282743 0.00007621003071743478 -0.0011218414250343798 -0.00039572553110896235 -0.00024273060239908025
          0.00004830762473358774 -0.000498656791826451 -0.0008262800872700794 -0.00039112215328844383 -0.0005341330480024511 -0.000015135568040716706
          0.00010062140361602364 -0.0011682968879432073 -0.00025797219543958425 0.000056227439004059046 -0.0005141496529026192 -0.0008694824223213834
          -0.0005294401319748237 -0.00002491844275343581 0.00007650864833734785 -0.0011711841450128175 -0.0004131908732577685 -0.0002537791744327353
          0.00004807653987282217 -0.0005225583296848338 -0.0008628478935866696 -0.00040907106208251345 -0.0005381911630855732 -0.00002401939676927203
          0.0000791703072014721 -0.0011901565255242439 -0.00025942370217640974 0.00004980142333574867 -0.0005296137021557314 -0.0008765034767319032
          -0.0004173020063615875 0.0003832514079554414 0.000006037455944439712 0.00018410517409128707 8.631361960800641e-15 3.2430551197972107e-15
          0.0003400568419638577 0.000011447420240058202 5.9358224159896866e-15 0.00016392617483386912 7.798559813284714e-15 3.0045922985288905e-15
          5.402835579742965e-15 0.00044764801030682596 0.000008031472523847615 0.0002125996795182083 9.309734844808583e-15 2.7643241580782693e-15
          0.0004205330317499353 0.000016350122402754817 6.048926826606405e-15 0.00020029127712958006 9.171476802130989e-15 3.1806250051995785e-15
          6.185847045359937e-15 0.0004898496415011861 0.000010915708868707697 0.0002338264378683986 8.209097447475975e-15 7.33265567336124e-16
          0.0004723638533854814 0.000019770805608599865 4.4756286947608836e-15 0.00022545486505339397 8.998861397067878e-15 1.9633688286637477e-15
          5.4893053775960064e-15 0.000517858435595901 0.000012336290232569125 0.0002471420272713126 4.9687937754965715e-15 -3.138565874206124e-15
          0.0005071062973577956 0.000022711459977150698 9.223166266221721e-16 0.0002427306024050266 6.878201138659916e-15 -9.595153451010126e-16
          2.969197707380827e-15 0.0005341330479843441 0.000015135568039237563 0.0002579721954297031 -8.10006049379565e-16 -9.057983540059004e-15
          0.0005294401319631673 0.000024918442758373318 -4.936122610977503e-15 0.0002537791744293358 2.4183097996583318e-15 -5.829573169769747e-15
          -1.698173088287763e-15 0.0005381911630599611 0.000024019396760051806 0.00025942370215891207 -4.66910912856141e-15 -1.2802796933657764e-14
          -8.74195401881797e-15 0.001168296887925095 -0.00010062140361748458 0.0011901565254985994 -0.00007917030721071631 0.0005141496528927013
          -0.00005622743900553188 0.0008694824223032669 0.0005296137021381906 -0.00004980142334497667 0.0008765034767062749 0.0004131908732478935
          0.00041730200634408735 0.0011339708788102958 -0.00009956654962385389 0.0011711841450011886 -0.00007650864833240136 0.0004947140193621634
          -0.00005684410361254859 0.0008437340654059054 0.0005225583296813837 -0.000048076539867883896 0.0008628478935750186 0.0003957255311108253
          0.0004090710620791185 0.0010726954790245887 -0.00009670124778350915 0.0011218414250325655 -0.00007621003070353744 0.0004668971141143
          -0.000055481576181290985 0.0007980986099155675 0.0004986567918324027 -0.0000483076247197118 0.0008262800872682143 0.0003743841199929037
          0.0003911221532944176 0.0009842388568729286 -0.00009258188820224945 0.001046486883548894 -0.0000743055844281657 0.00042585135437495607
          -0.00005390344947871772 0.000730844195788057 0.0004634050940949674 -0.00004761590080149727 0.0007702000281903287 0.00034065583099823245
          0.0003633513129075755 0.000856635927903118 -0.00007945020092585773 0.0009402261386978869 -0.00006847017298000491 0.0003726058595790715
          -0.000046330831425462025 0.0006305492489841829 0.0004154500301318798 -0.000044361737203139535 0.0006889260586437713 0.0002965696263808563
          0.00032395027291681836 0.000776573193599837 -0.0000472234343798483 0.00034893645360584873 -0.000032366595590172465 0.0005626376276719985
          0.0002684904047510719 0.00030834063537589566 -0.00030834063533980615 0.00015483092085172883 -0.00015483092082501263 1.8042692686253012e-14
          0.000284699356202559 -0.0002846993561704246 1.3333044125273948e-14 0.0001355164997021455 -0.00013551649967821669 1.60566445305642e-14
          1.1942735372138572e-14 0.0003447255864023069 -0.0003447255863607619 0.0001669198637965245 -0.00016691986376644538 2.0772685239937073e-14
          0.0003122461027842305 -0.00031224610274494067 1.5028774040750566e-14 0.0001404093146431663 -0.0001404093146143533 1.9632013760630632e-14
          1.4396044502546064e-14 0.00037172992397002544 -0.0003717299239273079 0.00017785298024480548 -0.00017785298021527222 2.13620913335821e-14
          0.0003413239505263566 -0.0003413239504835898 1.475461889899627e-14 0.00015024338795848095 -0.00015024338792812858 2.1371818158984886e-14
          1.516366432492395e-14 0.00039042940221517027 -0.0003904294021767358 0.00018631231722650483 -0.0001863123172023913 1.9220976279398538e-14
          0.0003627741552072376 -0.0003627741551658797 1.2053555580545072e-14 0.00015850408445127755 -0.00015850408442377321 2.0673717251760438e-14
          1.3742905585741135e-14 0.00040094625850655764 -0.00040094625847901186 0.0001889237584853247 -0.00018892375847244524 1.3769895780777698e-14
          0.00037660446390132957 -0.00037660446386746354 6.425759202351463e-15 0.00016355393038781547 -0.00016355393036855017 1.6929460957333107e-14
          9.632783657053598e-15 0.0003821688541794656 -0.000382168854160076 0.00016781397421065784 -0.00016781397420569309 9.698655914326119e-15
          2.4713386522424557e-15
        </DataArray>
        <DataArray type="Float64" Name="disp_y" format="ascii" RangeMin="-0.09132122018944917" RangeMax="0.4363329595781019">
          0.03285166476411521 0.0205039565722166 0.02050395657220956 0.0328516647641079 0.07030170513934363 0.0710045618621013
          0.07100456186209404 0.0703017051393362 0.026707898287914988 0.020553843190889768 0.026707898287907764 0.03301191871019101
          0.05116897756453095 0.04511460459497046 0.045114604594963297 0.05116897756452359 0.07057985998021142 0.07104557516959047
          0.07057985998020401 0.07036311983350631 0.02674042697872032 0.04811869210367944 0.04516005819481492 0.048118692103672145
          0.05127251392058019 0.07062621117415223 0.0481385075493105 -0.000018604314021441093 -0.023090795599114478 -0.0230907955991214
          -0.00001860431402884739 -0.011427802816126025 -0.023035339157264745 -0.011427802816133214 0.00021361628002801683 0.015690868985993953
          -0.0023904164276141535 -0.002390416427621214 0.015690868985986633 -0.011385793739904016 0.006747486191798965 -0.0023353060369058743
          0.006747486191791772 0.015904760945713622 0.00679340713872274 -0.026244511949009928 -0.05681336624726556 -0.056813366247272505
          -0.026244511949017644 -0.04135448240734436 -0.05676194521599827 -0.04135448240735152 -0.025991378491223148 -0.014058423168004694
          -0.041328935389846055 -0.041328935389853036 -0.014058423168012238 -0.04131729741946899 -0.02753004420848448 -0.041273477408104484
          -0.027530044208491627 -0.013814054530853746 -0.02749939248108163 -0.044675486809976434 -0.07913198354032981 -0.07913198354033674
          -0.04467548680998451 -0.061709496293377866 -0.07909219854958681 -0.061709496293385034 -0.04447235556800038 -0.036473383517173164
          -0.06945165869518169 -0.06945165869518864 -0.03647338351718108 -0.06170832786998948 -0.05276692667050961 -0.06940451067923196
          -0.05276692667051677 -0.0362252357427039 -0.052737019082305284 -0.055105993651314515 -0.08992318834127248 -0.08992318834127938
          -0.05510599365132284 -0.07228433243728316 -0.08990089220966123 -0.07228433243729034 -0.05482516913417705 -0.05087086812490995
          -0.08593396837777181 -0.08593396837777877 -0.05087086812491815 -0.0722190147617623 -0.06819228230269588 -0.08590196887658622
          -0.06819228230270308 -0.05067322522170921 -0.06819543346046832 -0.05819962887543794 -0.09035320756609297 -0.09035320756609974
          -0.05819962887544627 -0.07426724117884194 -0.09035226689164219 -0.07426724117884896 -0.0584087683748376 -0.05750103983588469
          -0.09132122018944228 -0.09132122018944917 -0.057501039835893074 -0.07445744883101327 -0.07422378515835855 -0.091309428357863
          -0.0742237851583657 -0.05729142428282724 -0.07417839453969617 0.34764070824782095 0.3476856576718452 0.3476856576718368
          0.3476407082478125 0.30330152359067725 0.3033497881408235 0.3033497881408151 0.30330152359066886 0.3476607979229207
          0.3476847814387833 0.34766079792291227 0.34763990678817375 0.32546638907663517 0.3255213886012478 0.32552138860123947
          0.3254663890766267 0.30331865670918046 0.30334483541692225 0.3033186567091721 0.30328280176557276 0.34766017275830935
          0.32548956420062686 0.32551795391374366 0.3254895642006185 0.3254616793297063 0.3033090380508692 0.3254853499837825
          0.39198713447388744 0.39201988012397154 0.3920198801239631 0.391987134473879 0.39200256612733225 0.3920198160358869
          0.39200256612732376 0.3919872550103152 0.3698150613570163 0.36985387274932946 0.369853872749321 0.36981506135700787
          0.3920026200936462 0.3698326983495083 0.36985386433571854 0.3698326983494999 0.36981527179734164 0.36983282591352046
          0.436302446071252 0.43633036873672565 0.43633036873671727 0.43630244607124363 0.43631515869643517 0.43633013427284606
          0.4363151586964268 0.4363022795434401 0.41415088992800486 0.4141803541976293 0.41418035419762095 0.4141508899279964
          0.43631496060963193 0.41416444280928694 0.4141800891520866 0.41416444280927844 0.41415071678708854 0.41416423477107844
          0.34763581981089353 0.34768503922901517 0.3033311348797754 0.3033515597944066 0.3476584182833929 0.3476857422674944
          0.3476406995011521 0.3254685574054958 0.3255263181434743 0.30333133394709233 0.3033532002663063 0.30332881383025606
          0.34766066354677694 0.32549345791870027 0.3255246485265356 0.32547168032734664 0.3033298058503055 0.32549384750994376
          0.3919863209968245 0.3920209903468266 0.39200271485916477 0.39202003713387135 0.3919868992248177 0.36981180263303665
          0.36985286669559464 0.39200244341503815 0.3698307577344775 0.36985345009118586 0.3698142053376949 0.36983202605925863
          0.4363044715066064 0.4363329595781019 0.43631749292591765 0.43633116365586805 0.43630291241469377 0.4141523577725151
          0.4141828474400729 0.43631576641352493 0.4141663769192436 0.41418107992631525 0.4141514147725482 0.41416499903198495
          0.436332959578081 0.4363044715065854 0.39202099034680554 0.3919863209968035 0.4363174929258967 0.4363029124146791
          0.4363311636558532 0.4141828474400518 0.4141523577724941 0.3920027148591437 0.39198689922480295 0.3920200371338566
          0.4363157664135101 0.4141663769192226 0.4141514147725335 0.41418107992630054 0.3920024434150233 0.4141649990319703
          0.34768503922899413 0.34763581981087255 0.36985286669557366 0.36981180263301555 0.3476584182833718 0.3476406995011374
          0.3476857422674796 0.3698307577344565 0.36981420533768017 0.36985345009117115 0.34766066354676217 0.3698320260592438
          0.30335155979438555 0.30333113487975444 0.32552631814345323 0.3254685574054748 0.30333133394707135 0.30332881383024135
          0.30335320026629164 0.32549345791867923 0.325471680327332 0.32552464852652085 0.3033298058502908 0.325493847509929
          0.347641356976498 0.34764135697648957 0.30338784331119667 0.30338784331118823 0.3476282118996854 0.347628211899677
          0.34764403134262334 0.32549715239739113 0.32549715239738264 0.3033165543688871 0.30331655436887867 0.30338186703390274
          0.3476288860457606 0.3254655559965549 0.3254655559965464 0.3255011490962551 0.30329712154917315 0.32546135334640475
          0.3919727620085373 0.39197276200852893 0.39197359618584127 0.39197359618583283 0.39197294345390993 0.3698057421105703
          0.3698057421105619 0.3919738652656028 0.3698013101372192 0.36980131013721085 0.3698072192090909 0.3698018538733345
          0.4362919219323093 0.4362919219323009 0.43629251616814735 0.43629251616813897 0.4362916550752238 0.41413558410560164
          0.4141355841055932 0.4362923708951348 0.4141380368736305 0.41413803687362205 0.41413540517431713 0.41413787133927976
          0.3476265534282227 0.30334632891146723 0.3476210561889413 0.34763519574676116 0.32548276678848836 0.3033559827824859
          0.30335815778566017 0.34762758078627437 0.325464272231258 0.3254897816225107 0.303358925653599 0.32546819226901214
          0.39197335873821865 0.39197277873442077 0.3919727489189976 0.3698017859147875 0.3919732703230196 0.3697968293873269
          0.3698035458117837 0.3697996504502322 0.436294205096921 0.4362944637058083 0.4362926593787737 0.41413773136879767
          0.43629303312179046 0.41413943981951795 0.4141361730306419 0.4141384593718692 0.4362942050968999 0.3919733587381976
          0.43629446370578734 0.43629265937875905 0.4141377313687767 0.3919727787343996 0.3919727489189829 0.43629303312177575
          0.41413943981949697 0.41413617303062716 0.3919732703230048 0.4141384593718544 0.34762655342820165 0.36980178591476653
          0.34762105618892025 0.3476351957467465 0.3697968293873059 0.36980354581176905 0.3476275807862597 0.3697996504502175
          0.3033463289114462 0.32548276678846744 0.3033559827824649 0.3033581577856454 0.3254642722312371 0.3254897816224959
          0.3033589256535843 0.3254681922689975 0.00004886527679442798 0.000030173216694553893 0.000030173216694521746 0.000048865276794309994
          -0.00007717343863142388 0.000027069275694435195 0.000027069275694390214 -0.00007717343863144909 0.000043434213413855406 0.000030981651389274185
          0.00004343421341380978 0.0000679931450355174 0.00001841008464834412 0.00004381035403939434 0.00004381035403934643 0.00001841008464821147
          -8.338617655819859e-7 0.000023784268490811636 -8.338617656268886e-7 -0.00007116561272548263 0.000048487628669651945 0.00004000435970284192
          0.00004300266795310704 0.000040004359702776684 0.00004068977111827326 -0.00000673327239389825 0.000044858044032465895 0.000024287901107660406
          0.000024287901107647247 0.00003943430691135114 0.000039434306911331014 0.00002616186651986766 0.000024023804320854698 0.000026161866519847184
          0.00003826721406774581 0.00003826721406772664 0.000033198171417529066 0.00003952723528155242 0.00003319817141750178 0.000025896652333730288
          0.00003852595501763482 0.00003794621920855119 0.00003852595501760453 0.00003157201754177244 0.0000378879661017878 0.00006716554761569187
          0.00006716554761567339 0.00008051565616230114 0.00008051565616228229 0.00003413783626765966 0.00006700011945258189 0.0000341378362676494
          0.00008164108918305036 0.00008164108918303112 0.00005529540445608218 0.00008122671080396083 0.00005529540445606667 0.0000340549175114387
          0.000051753602330489146 0.00008169458976776827 0.000051753602330473907 0.000055823214193343025 0.00005192043390266572 0.000020778015132079204
          0.000035831638194812484 -0.000018188841630837945 0.000045525575420378814 0.000040169651139244073 0.000030719391711310444 0.000020222113476202204
          -0.000026568281290754853 0.00005179888387908642 0.000020038059059536813 0.000034699884316159566 -0.00003726476376324128 0.00003731857984889208
          0.000041528913656465886 0.00004455904866921883 -0.000030326945719843987 0.000009500168498077657 0.00003693571067319062 0.00002674615961547384
          0.00003709666109114724 0.00003053846973734226 0.000025579519041910214 0.00003818880142171311 0.00003695990059353752 0.000038928657070703915
          0.000027722859423863188 0.00004285267868353248 0.00003840750644843451 0.00003548468750086341 0.00004026492419644043 0.00006647574275987536
          0.00007648805687331868 0.00003398563615727625 0.00006855245748953541 0.00007835921683766128 0.00005135580964598783 0.00007930767990673548
          0.00003474684468162568 0.00004902433844915134 0.0000807696032616313 0.0000541307442708798 0.00005098945203342592 0.00006647574275984502
          0.000026746159615435894 0.0000764880568732819 0.00003709666109109944 0.00003398563615725626 0.000025579519041886135 0.00006855245748950719
          0.00007835921683762464 0.00003818880142166264 0.0000513558096459506 0.0000389286570706697 0.00007930767990670618 0.000034746844681608705
          0.0000490243384491171 0.00003840750644840049 0.00008076960326159907 0.00005413074427085279 0.000050989452033400324 0.00003583163819471118
          0.00004552557542025476 0.00003053846973727862 0.00003071939171124988 0.000051798883878961044 0.000036959900593465725 0.000034699884316081585
          0.00002772285942382314 0.00004285267868345011 0.00004455904866913768 0.00003548468750081228 0.00004026492419638652 0.000020778015131874306
          -0.00001818884163101303 0.00004016965113910898 0.000020222113476063446 -0.000026568281290929538 0.000020038059059385285 -0.0000372647637633376
          0.000037318579848810315 0.000041528913656288145 -0.000030326945719955253 0.000009500168497979542 0.00003693571067307326 0
          0 0 0 0.000012455425529598891 0 0.00001245542552959177
          0 0 0.00004193551619146486 0 0.000041935516191451885 0.000012185512198301221
          0.000016234862205348602 0 0.000016234862205343675 0.0000416310539117368 0.000016000528296299037 0
          0 0.000014502528734404227 0 0.00001450252873438736 0 0
          0.000014897797910288463 0.000011737131263922515 0 0.00001173713126391222 0.000011589024099185316 0
          0 0.00003589612659077925 0 0.00003589612659072057 0 0
          0.00004319290567649497 0.000017140737332918783 0 0.000017140737332897804 0.00002015915753479676 0
          0 0.00001601451834113534 0 0 0.000044592630856281476 0
          0.000013093827551327894 0.000019015363217411585 0 0.00004240230324456512 0.00001658040571636053 0
          0.000018618223586660563 0 0 0.000014920020394171602 0.000015753841492972695 0
          0.000012471465403534028 0 0.000025152493217421178 0 0 0.000028835127451342683
          0.000013382550374393553 0 0.00001409970316148505 0 0 0.00002515249321726901
          0 0 0.000018618223586597953 0 0.000028835127451251648 0.000013382550374315487
          0 0.000014920020394139956 0.000014099703161445613 0 0 0.000016014518341115086
          0 0.000015753841492934785 0 0.000013093827551314501 0.000012471465403513655 0
          0 0.00004459263085626657 0 0.00001901536321740407 0 0.00004240230324454503
          0.00001658040571635279 0.040546980728019995 0.04054698072802737 0.07039970411057091 0.07039970411057841 0.03661036738848226
          0.0406637122534255 0.03661036738848958 0.055213251170366864 0.055213251170374275 0.07026057326750458 0.07048103788737715
          0.07026057326751203 0.03673237094993368 0.053086025974894785 0.05531523886236344 0.05308602597490215 0.07035520629054787
          0.053193667078271945 0.01384367642595761 0.013843676425964993 0.006846305874219805 0.013971299441905042 0.006846305874227194
          0.026703390458781028 0.02670339045878838 0.006983327934627285 0.021125736094455148 0.026828855570322458 0.02112573609446249
          0.021258191981730803 -0.008143841639682032 -0.008143841639674534 -0.017240279094299506 -0.008027169451066686 -0.017240279094291804
          0.002200843916968867 0.0022008439169762853 -0.017115420398245134 -0.0059959488377871965 0.002325554182224586 -0.005995948837779662
          -0.00586088499591605 -0.02449020920949716 -0.0244902092094895 -0.03463908722894949 -0.02440105134253548 -0.034639087228941476
          -0.01704463176547168 -0.0170446317654641 -0.034542781032272825 -0.02679811564540042 -0.01693978266838075 -0.026798115645392542
          -0.026687110046848966 -0.03492260380493928 -0.034922603804931514 -0.044906249208252064 -0.03487469568233367 -0.04490624920824379
          -0.030430675867661836 -0.0304306758676541 -0.04485502392720247 -0.04068059080699334 -0.03036050275710049 -0.04068059080698519
          -0.04060318683061264 -0.03980577701839847 -0.03980577701839076 -0.04927725988697193 -0.03980522087147788 -0.049277259886963624
          -0.0380167139602958 -0.03801671396028808 -0.04928420983367679 -0.04766601230588722 -0.03799193293286622 -0.047666012305878906
          -0.047644197743795844 0.04003087762292372 0.03223316656962869 0.07002362018631875 0.06987722585310766 0.040327059551224835
          0.036090099105957806 0.03251542768087681 0.05475537624557585 0.050634621754974234 0.07023545901227231 0.06988881215319917
          0.07008320971972919 0.03636677937793198 0.05501712422678499 0.05263186683246397 0.05087988618130884 0.0701087838958986
          0.052878310062230545 0.013289014953729009 -0.000710593982754381 0.013603737398954993 0.006297716907991443 -0.00040640148377287574
          0.026153119489823403 0.015015783171382512 0.006578369295439738 0.026465339072967668 0.020570346387007887 0.015309668661439766
          0.02086110596947535 -0.008651016603072464 -0.026892745461490127 -0.008364471624555414 -0.017728829956214682 -0.026613675154200052
          0.0016574699950935242 -0.014745089051016928 -0.017488414979804485 0.001963504192376036 -0.006518506260723319 -0.014453473580706514
          -0.006259452857427249 -0.024878052364365688 -0.04518251833580074 -0.024659207010033726 -0.03495722896284007 -0.044967655868270194
          -0.01750268551692393 -0.03706451652751407 -0.03482145881682463 -0.017245323109092284 -0.027225948540526602 -0.036817966997577854
          -0.027022091449114806 -0.03513608365239532 -0.05539064942683956 -0.035016326880490396 -0.04513318410035376 -0.05527358525059949
          -0.03073875932939014 -0.05127758378664621 -0.04503107349532048 -0.03056599202629686 -0.040914086431171594 -0.051110788467042104
          -0.04082646985561166 -0.0398094152498933 -0.05821534062159647 -0.03980746113285322 -0.04901235744627529 -0.058212358852575266
          -0.03812752445719247 -0.05765522836238616 -0.04922342243484844 -0.03806506853113354 -0.04777560632397858 -0.057594487731775765
          -0.04773766826662458 -0.05821534062161836 -0.03980941524991346 -0.05539064942686133 -0.03513608365241549 -0.04901235744629633
          -0.039807461132866914 -0.058212358852590775 -0.05765522836240808 -0.03812752445721266 -0.04513318410037468 -0.03501632688050419
          -0.055273585250614876 -0.049223422434863065 -0.04777560632399964 -0.03806506853114733 -0.05759448773179128 -0.045031073495335035
          -0.047737668266639235 -0.045182518335821605 -0.02487805236438541 -0.05127758378666749 -0.030738759329410136 -0.034957228962860305
          -0.02465920701004726 -0.04496765586828489 -0.04091408643119224 -0.03056599202631053 -0.05111078846705714 -0.034821458816838714
          -0.04082646985562603 -0.02689274546150972 -0.008651016603091585 -0.03706451652753426 -0.017502685516943325 -0.01772882995623402
          -0.00836447162456864 -0.026613675154213857 -0.02722594854054639 -0.01724532310910567 -0.03681796699759211 -0.017488414979817953
          -0.027022091449128576 -0.000710593982773003 0.013289014953710458 -0.014745089051035935 0.001657469995074727 0.006297716907972862
          0.013603737398942078 -0.0004064014837859467 -0.00651850626074224 0.001963504192362963 -0.01445347358071993 0.006578369295426777
          -0.006259452857440441 0.03223316656961038 0.04003087762290526 0.015015783171364181 0.026153119489804998 0.03609009910593953
          0.04032705955121197 0.03251542768086398 0.02057034638698952 0.02646533907295482 0.015309668661426894 0.0363667793779192
          0.020861105969462536 0.06987722585308916 0.07002362018629994 0.05063462175495593 0.054755376245557326 0.06988881215318055
          0.07023545901225915 0.07008320971971624 0.052631866832445584 0.05501712422677201 0.05087988618129596 0.07010878389588554
          0.052878310062217666 -0.0002952846336681647 -0.00008458648545699102 -0.0000845864854576294 -0.0002952846336687049 -0.00013936919115904457
          -0.00010048005885712223 -0.0001393691911596694 -0.0003170810557817553 -0.0001431202010966189 0.0000464958675129335 0.00004649586751258118
          -0.00014312020109687087 -0.00015356017206123604 0.000009798952997152076 0.000037096439501098315 0.0000097989529967829 -0.00014404524547398997
          -0.000007700508292380876 -0.0010937893089373839 -0.0008198517639115627 -0.0008198517639128813 -0.0010937893089385628 -0.0008832371432730715
          -0.000844046204756877 -0.0008832371432743257 -0.0011185805430469521 -0.0006125510660325637 -0.00036747487996172 -0.00036747487996269577
          -0.0006125510660334091 -0.0009071258832466164 -0.0004240968344631916 -0.0003883635716565576 -0.00042409683446411803 -0.0006323356753538217
          -0.00044595041798910375 -0.002664159261925367 -0.00232996277662248 -0.002329962776624506 -0.0026641592619272383 -0.002404022567071869
          -0.0023595219105343023 -0.0024040225670738163 -0.0026942445776296058 -0.001771101353017002 -0.0014665864322089557 -0.001466586432210628
          -0.0017711013530185239 -0.0024341366382350698 -0.0015352008136576237 -0.0014935939901165988 -0.0015352008136592223 -0.0017981362091573513
          -0.0015625037413300627 -0.005191185035000677 -0.0047954589943597714 -0.004795458994362512 -0.005191185035003242 -0.004881157690882638
          -0.0048313242419061745 -0.0048811576908852905 -0.005228476036884864 -0.003796222832260984 -0.0034324034199693424 -0.0034324034199717268
          -0.003796222832263202 -0.0049173732146745065 -0.0035114080939991415 -0.003464627553269556 -0.003511408094001442 -0.0038295517920907173
          -0.003544550438185309 -0.008886132115884295 -0.008387927075585193 -0.008387927075588634 -0.008886132115887553 -0.008517234233096391
          -0.008439731079003733 -0.008517234233099736 -0.008935438293248337 -0.006876230520504688 -0.0064404546401152715 -0.006440454640118369
          -0.00687623052050761 -0.008559342258942133 -0.006539330628145625 -0.006481869929178243 -0.006539330628148628 -0.006918820177332489
          -0.006578583956583208 -0.014052370762151909 -0.013297126421843566 -0.013297126421847707 -0.014052370762155769 -0.013601099576524073
          -0.013394526627962533 -0.013601099576528063 -0.014106193711853166 -0.011264970774431638 -0.010660931782967465 -0.010660931782971258
          -0.011264970774435215 -0.01364569369266891 -0.010859318211990834 -0.010730599885779046 -0.010859318211994515 -0.011319189774069115
          -0.010902444915267056 0.2627408184572591 0.2628969965591417 0.26289699655913346 0.2627408184572508 0.26277314043573813
          0.2629123076146781 0.2627731404357298 0.2627491421976653 0.2829783339499148 0.28311204963790815 0.2831120496378997
          0.28297833394990635 0.2627841937547465 0.2829932760318397 0.2831109022373107 0.2829932760318313 0.2829812645730315
          0.2830070870586442 0.22261321273509319 0.22284399093451665 0.22284399093450852 0.22261321273508497 0.2226668227455473
          0.22286372316735073 0.22266682274553903 0.22263201287823803 0.2426090122910117 0.24280600509593314 0.24280600509592493
          0.24260901229100337 0.2226865775922883 0.2426520449624939 0.24282100026211142 0.24265204496248566 0.2426240066070937
          0.24266962216971208 0.18312466281675066 0.1834189126014954 0.18341891260148746 0.18312466281674258 0.1831918676640105
          0.18344459070196828 0.18319186766400242 0.18315032123784952 0.2027773418988795 0.20304097796427428 0.20304097796426623
          0.2027773418988713 0.183217632909401 0.20283837049815756 0.20306346259724561 0.20283837049814937 0.2027995494896112
          0.20286143849823396 0.14445743126247293 0.14481331654386972 0.144813316543862 0.1444574312624651 0.14453640647913638
          0.14484621981865525 0.14453640647912855 0.14448811228684424 0.16367747498868931 0.16400162519499534 0.16400162519498745
          0.1636774749886813 0.1445685686289696 0.16374988183928174 0.16403062412525327 0.16374988183927378 0.1637060876686433
          0.16377863286067001 0.10678335310876479 0.10723825570207388 0.10723825570206638 0.10678335310875715 0.10690320519438959
          0.10728269069918195 0.10690320519438198 0.10683241140283876 0.12548585610630203 0.12588091439613175 0.12588091439612417
          0.12548585610629426 0.10694051653894707 0.12557731920088533 0.12591892976974814 0.12557731920087767 0.12552149971745077
          0.12561259137894734 0.08837563311275771 0.08893194675024536 0.08893194675023795 0.08837563311275015 0.0885585735909031
          0.08897911306658203 0.08855857359089564 0.08843664204292423 0.08859797759210176 0.2628140502638424 0.26276420770116254
          0.2626956974822773 0.2627631704438867 0.2627971729132889 0.26271581119376913 0.2627298553596963 0.2830444164929782
          0.28302290970291755 0.28297402411945566 0.26274727064636944 0.2830050800361954 0.28303957594481777 0.2829939828992709
          0.2829844699766649 0.28300608607918704 0.22270447193392073 0.22260427458107837 0.22251495592457646 0.22263801248358647
          0.22266596942962724 0.2225391842241969 0.22257608673401186 0.24268987030596287 0.24261132042091224 0.24253424223347791
          0.22260005578698278 0.24263234368386064 0.24266044449653293 0.24255615059861013 0.24258239042901628 0.24260396284895996
          0.1832406756206097 0.18310681608558196 0.18299174856209105 0.1831573966720492 0.18318832154745107 0.1830235576470764
          0.18307308527023264 0.20288050048998413 0.2027624814107252 0.20266034573355304 0.1831047767562161 0.20280548841216284
          0.2028345341078088 0.20268839977705658 0.20273208055336453 0.20276009176905158 0.14459807013800718 0.14443062586451885
          0.14428893081848654 0.14449695999346035 0.14453156915981513 0.14432940862781207 0.1443907369691734 0.16380641412656466
          0.16365699318107801 0.16352869044092652 0.1444312586930417 0.16371465037899285 0.16374766164876256 0.16356471705117862
          0.16361956790021212 0.1636554017728829 0.10693298765402703 0.10670277010277407 0.10653485171352246 0.1068255652894723
          0.10683695115124044 0.1065824553708319 0.10667362187279486 0.12563476329351492 0.12544219211847907 0.1252876560787294
          0.10672234482280957 0.12552667338585619 0.1255567083803988 0.12533173467184391 0.12540437706817315 0.12544873977497975
          0.0885117410758908 0.08822045259743888 0.08804902629911703 0.08839530657924814 0.08838672851353098 0.08808868102616485
          0.08821962657079814 0.08826341356003803 0.26281405026383403 0.26276317044387837 0.26282046257145913 0.2830444164929698
          0.2627702675655005 0.28300508003618696 0.28304415686562023 0.2830031922659815 0.22270447193391243 0.22263801248357817
          0.22272271486978226 0.24268987030595454 0.2226565666387449 0.24263234368385234 0.2427033521210581 0.24264577647724125
          0.18324067562060153 0.1831573966720411 0.18326594319461562 0.20288050048997586 0.18318236356990697 0.20280548841215465
          0.20290257969328448 0.20282781467269725 0.14459807013799922 0.1444969599934524 0.1446305840974061 0.16380641412655667
          0.1445298182608288 0.1637146503789848 0.16383487747502665 0.1637425598607927 0.10693298765401925 0.10682556528946453
          0.10698215331555613 0.12563476329350703 0.10687309638262929 0.1255266733858483 0.12567366485010714 0.12556595051201963
          0.08851174107588314 0.08839530657924051 0.08857583203611331 0.08845952335140822 0.10653485171350334 0.10670277010275461
          0.08804902629909823 0.08822045259741976 0.10658245537081265 0.10683695115122685 0.10667362187278144 0.08808868102614589
          0.08838672851351759 0.08821962657078498 0.10672234482279605 0.08826341356002472 0.14428893081846672 0.14443062586449884
          0.12528765607870992 0.1254421921184594 0.14432940862779223 0.14453156915980117 0.14439073696915955 0.12533173467182432
          0.12555670838038496 0.1254043770681595 0.1444312586930278 0.125448739774966 0.18299174856207076 0.1831068160855615
          0.1635286904409065 0.16365699318105786 0.1830235576470561 0.18318832154743686 0.18307308527021846 0.16356471705115852
          0.1637476616487485 0.16361956790019808 0.18310477675620188 0.1636554017728688 0.22251495592455584 0.22260427458105764
          0.2026603457335326 0.20276248141070463 0.2225391842241763 0.22266596942961273 0.22257608673399745 0.2026883997770361
          0.2028345341077944 0.20273208055335024 0.22260005578696831 0.20276009176903725 0.26269569748225646 0.2627642077011415
          0.24253424223345718 0.24261132042089137 0.2627158111937483 0.26279717291327426 0.26272985535968174 0.24255615059858943
          0.24266044449651836 0.24258239042900176 0.2627472706463548 0.24260396284894536 0.28297402411943473 0.28302290970289656
          0.28299398289925 0.2830395759448031 0.2829844699766503 0.2830060860791724 -0.0001773328682311713 -0.000003381897851976249
          -0.00009605213880444284 -0.00011114721866951534 -0.000056895152165124735 -0.00003140814011044193 -0.00014765484918567555 -0.000029722733396722365
          0.00007433996479717315 0.00002000825324406671 -0.00008101002425325362 0.000026511154250525622 0.00005446035037979793 0.0000620607026928742
          -0.000015067008893321685 0.000035455456592085706 -0.0009329010431075047 -0.0006944359684296994 -0.0008067667846611947 -0.0008516112502038086
          -0.0007710428216783602 -0.0007261578063003116 -0.0008839351851590509 -0.00046821841498698527 -0.00026169831858939807 -0.0003609798007821128
          -0.0008024645260742245 -0.00039530730037193437 -0.00032650476673902126 -0.0002893305906904574 -0.000426653101370018 -0.00035451998702101583
          -0.002469342986513255 -0.002174265859843113 -0.0023128120102386776 -0.002369903970639986 -0.002269355326640725 -0.0022137213428377336
          -0.00240802429666828 -0.0015926125331060408 -0.0013253112007613995 -0.0014509236786348783 -0.0023087220528694888 -0.0015022612165381864
          -0.001411380369987213 -0.001360842242973984 -0.0015370812054926089 -0.001446886432514132 -0.00495952780476143 -0.00460426701106885
          -0.004769531338150687 -0.00484371406057823 -0.004719780780455543 -0.004652422489252046 -0.004884081517892837 -0.0035848973452439433
          -0.0032613311423191974 -0.003413186906012336 -0.0047678696738701586 -0.0034766590561003106 -0.0033657643324681618 -0.0033049925440047016
          -0.0035173349171170073 -0.0034092944170428328 -0.008559336625542084 -0.008111802939519805 -0.008303209108678425 -0.008434097999255675
          -0.00826617827149535 -0.008166902247702265 -0.008452591613079758 -0.006612290817943743 -0.00621802755635808 -0.006396083721815838
          -0.008322975095600425 -0.0064900485993574465 -0.006349071223240825 -0.006269703833017837 -0.006524705216619272 -0.006400944045024588
          -0.013413095733902666 -0.012833016032904635 -0.013000683017317535 -0.01329169645550893 -0.01306533214915849 -0.01285478494525185
          -0.013238387605179468 -0.010817120537232966 -0.010301111511441956 -0.010495566967259064 -0.013098938574605623 -0.010688589418107937
          -0.010491021796835745 -0.010348755561124355 -0.010680560382794854 -0.0105431391458488 -0.00017733286823184383 -0.00011114721867016815
          -0.00019044293589987556 -0.000029722733397065426 -0.00012543537770672185 0.000026511154250213907 -0.000034275260259603595 0.000022523518175006546
          -0.0009329010431088958 -0.0008516112502051662 -0.0009565532049903724 -0.000468218414988017 -0.0008753669870607381 -0.00039530730037293303
          -0.00048796228782020386 -0.0004152397886745308 -0.0024693429865153683 -0.0023699039706420568 -0.002499023735232997 -0.001592612533107795
          -0.0023995079981449893 -0.0015022612165398988 -0.0016194301331932087 -0.0015291229117260917 -0.004959527804764264 -0.004843714060581019
          -0.004996418894782145 -0.003584897345246417 -0.004880276603792749 -0.0034766590561027366 -0.0036176463973907865 -0.003509258111012095
          -0.008559336625545633 -0.008434097999259172 -0.00861395911796484 -0.006612290817946937 -0.00848900395273691 -0.006490048599360593
          -0.006655928819147537 -0.006533179319901063 -0.013413095733906923 -0.013291696455513128 -0.013507295622276866 -0.010817120537236864
          -0.013386712327031982 -0.010688589418111783 -0.010889059451625877 -0.010761096583019958 -0.0130006830173282 -0.012833016032915033
          -0.008303209108687305 -0.008111802939528425 -0.01285478494526237 -0.013065332149165767 -0.013238387605186927 -0.010495566967268815
          -0.010301111511451464 -0.008166902247711013 -0.008266178271501386 -0.008452591613085963 -0.013098938574612978 -0.010348755561133979
          -0.01049102179684239 -0.01068056038280168 -0.008322975095606545 -0.010543139145855538 -0.00476953133815779 -0.004604267011075712
          -0.006396083721823829 -0.006218027556365842 -0.004652422489259033 -0.004719780780460352 -0.004884081517897805 -0.006269703833025706
          -0.006349071223246248 -0.006524705216624865 -0.0047678696738750435 -0.006400944045030098 -0.0023128120102439776 -0.0021742658598481865
          -0.0034131869060185327 -0.003261331142325183 -0.002213721342842922 -0.0022693553266442817 -0.0024080242966719825 -0.0033049925440107905
          -0.0033657643324723416 -0.003517334917121345 -0.0023087220528731148 -0.003409294417047093 -0.0008067667846646814 -0.0006944359684329841
          -0.0014509236786392659 -0.0013253112007655878 -0.0007261578063037014 -0.0007710428216806669 -0.0008839351851614866 -0.001360842242978269
          -0.0014113803699901408 -0.0015370812054956802 -0.0008024645260765942 -0.0014468864325171311 -0.00009605213880612346 -0.000003381897853485737
          -0.00036097980078468914 -0.00026169831859180315 -0.00003140814011204294 -0.00005689515216619311 -0.00014765484918684594 -0.0002893305906929419
          -0.0003265047667407057 -0.0004266531013718248 -0.00008101002425437723 -0.0003545199870227576 0.000020008253243229157 0.00007433996479642982
          0.00006206070269212477 0.00005446035037927028 -0.00001506700889392201 0.000035455456591559705 -0.01874194089182632 -0.020442252838972445
          -0.019777847457561167 -0.018183422919294454 -0.019486555753111392 -0.020082827973751965 -0.018889969202106206 -0.018504324307297388
          -0.015951546739233137 -0.016625714589590182 -0.016046212517010376 -0.015452611325254367 -0.019225204182286737 -0.016201260687871505
          -0.016314825957052956 -0.015672401688770782 -0.015739461678969502 -0.01596937669022058 -0.024939288336888944 -0.029316027278730495
          -0.028589959978798984 -0.024349495895114627 -0.027004113565682306 -0.028912619859263383 -0.02635866873343341 -0.024684521879251107
          -0.021787678212437926 -0.024703812211214288 -0.023986488301443103 -0.02119718350255467 -0.026720962769963157 -0.023123950999997846
          -0.024301232718728076 -0.02248855960043636 -0.021532584730696074 -0.022842733402536095 -0.03127889546833383 -0.03906416046559533
          -0.03840330290667426 -0.030750467399223037 -0.03504622892620496 -0.03869296197105906 -0.03445447836387599 -0.031049448122485848
          -0.028166884679836107 -0.03415584322541137 -0.03344500709683947 -0.02759479321458974 -0.03479152369759243 -0.031034472380818565
          -0.03375104501266487 -0.030401550416343046 -0.02791738198465335 -0.030758471245986393 -0.03672011157148215 -0.04832342893325536
          -0.0478257204291442 -0.036325360329419305 -0.042429588417062354 -0.04804307158395497 -0.041948112168057106 -0.036548610905355834
          -0.03420149732513659 -0.04385877004285404 -0.0432661988750571 -0.0337295181049202 -0.04223403302657747 -0.03890847919426784
          -0.04351894129065815 -0.03837111025017843 -0.033995155949013506 -0.03867998384787382 -0.040006917955850534 -0.055338350700363824
          -0.05507905507349847 -0.03979704745745319 -0.04751766340214392 -0.05519261484993628 -0.04728840802530744 -0.039915344347786486
          -0.03872749089684652 -0.0522331925381527 -0.05184477933755381 -0.03841838729435198 -0.04743137635646633 -0.04539373581451275
          -0.0520106102998523 -0.04499825629268058 -0.03859223863761126 -0.04524060113490216 -0.04042494462651373 -0.05741030889911527
          -0.05728576047763576 -0.04032059237891723 -0.048801021477968734 -0.05734128897213415 -0.04867672771777826 -0.04037991961124456
          -0.04876430996510461 -0.018741940891831253 -0.020442252838977423 -0.019486555753116374 -0.02057048384349472 -0.01886830640888467
          -0.01595154673923772 -0.016625714589594727 -0.01962468011946987 -0.016201260687876074 -0.016744998797157067 -0.016063898867380574
          -0.01632037217564405 -0.024939288336894606 -0.029316027278736386 -0.02700411356568818 -0.02943947943617541 -0.02507538972752325
          -0.021787678212443224 -0.024703812211219717 -0.027155061080003817 -0.023123951000003265 -0.024835976847307956 -0.02192254152342802
          -0.02327256755683802 -0.031278895468340215 -0.039064160465602106 -0.03504622892621171 -0.03915294563718808 -0.03140113125300703
          -0.028166884679842137 -0.03415584322541772 -0.035184932775731294 -0.031034472380824886 -0.03427027848038603 -0.028298746260583287
          -0.03118176938386586 -0.03672011157148916 -0.048323428933262885 -0.04242958841706985 -0.04837313373690275 -0.03681171418687146
          -0.0342014973251433 -0.043858770042861234 -0.042535045305318396 -0.038908479194274995 -0.04392515368726082 -0.03431032930305824
          -0.03903380906891063 -0.04000691795585799 -0.05533835070037191 -0.04751766340215193 -0.055227602621310115 -0.0400549841679068
          -0.03872749089685378 -0.052233192538160535 -0.04757613903011323 -0.04539373581452053 -0.05224387744618117 -0.038798837135464496
          -0.045475808207345855 -0.04042494462652131 -0.05741030889912354 -0.04880102147797692 -0.057285934464324256 -0.04044921329588232
          -0.04883481566734045 -0.039797047457472694 -0.05507905507351969 -0.040320592378937085 -0.05728576047765734 -0.04728840802532782
          -0.05519261484995129 -0.039915344347799746 -0.048676727717799045 -0.057341288972149455 -0.04037991961125809 -0.047431376356480474
          -0.04876430996511904 -0.03632536032943757 -0.0478257204291639 -0.03841838729437093 -0.05184477933757435 -0.041948112168076084
          -0.048043071583968894 -0.03654861090536829 -0.04499825629270035 -0.05201061029986683 -0.038592238637624184 -0.042234033026590664
          -0.045240601134915896 -0.03075046739923954 -0.038403302906691854 -0.033729518104937614 -0.04326619887507579 -0.03445447836389299
          -0.038692961971071464 -0.031049448122497183 -0.03837111025019647 -0.04351894129067137 -0.03399515594902542 -0.03479152369760428
          -0.038679983847886366 -0.024349495895129133 -0.028589959978814052 -0.02759479321460527 -0.03344500709685584 -0.026358668733448186
          -0.028912619859274017 -0.02468452187926112 -0.03040155041635899 -0.03375104501267641 -0.027917381984664043 -0.026720962769973464
          -0.030758471245997492 -0.018183422919306906 -0.019777847457573702 -0.021197183502568145 -0.023986488301456856 -0.018889969202118686
          -0.020082827973760778 -0.018504324307306055 -0.02248855960044996 -0.024301232718737787 -0.02153258473070541 -0.019225204182295463
          -0.02284273340254561 -0.015452611325265889 -0.01604621251702178 -0.015672401688782228 -0.01631482595706095 -0.015739461678977544
          -0.015969376690228583 -0.02461538360620666 -0.02461538360621127 -0.022498944348219124 -0.022498944348223856 -0.024669193775937518
          -0.0189137217845555 -0.01891372178455977 -0.02254129491874779 -0.017732398447664326 -0.017732398447668697 -0.018965400999856052
          -0.017774562750600884 -0.03820959975438321 -0.03820959975438842 -0.03373243788021867 -0.033732437880224043 -0.03826829514589813
          -0.031064027480731712 -0.031064027480736674 -0.033771619675194035 -0.027867344521454847 -0.027867344521459916 -0.031122993184126743
          -0.027904080867749596 -0.05380250484724146 -0.053802504847247225 -0.04638346257129557 -0.04638346257130148 -0.053855660967398675
          -0.045848313799440515 -0.045848313799446025 -0.046416938344282406 -0.03997420517149932 -0.03997420517150496 -0.04590641780727503
          -0.040011171094603205 -0.06946411522137125 -0.06946411522137753 -0.05881104191514989 -0.05881104191515638 -0.06950407528608231
          -0.061767840459208675 -0.06176784045921474 -0.05885170887822383 -0.052756691407102194 -0.05275669140710844 -0.06181602716988238
          -0.0527837499894345 -0.0826103380645984 -0.082610338064605 -0.06881813874287941 -0.06881813874288628 -0.08263162523438736
          -0.07652656828042562 -0.07652656828043208 -0.06878911391634278 -0.06427508253149603 -0.06427508253150271 -0.0765582062858538
          -0.06430962487981445 -0.08734249756644874 -0.08734249756645547 -0.07222587976069006 -0.07222587976069705 -0.08735295576063179
          -0.07219719405662413
        </DataArray>
        <DataArray type="Float64" Name="disp_z" format="ascii" RangeMin="-0.23621358713923063" RangeMax="0.010559562876943936">
          -0.1695279250641897 -0.21920311044316887 -0.21920311044318208 -0.16952792506420297 -0.17452875045713248 -0.22863753626819924
          -0.22863753626821318 -0.17452875045714614 -0.19397409920332725 -0.21920861288254065 -0.19397409920334038 -0.16920025632750743
          -0.17324025623250025 -0.225557469021524 -0.22555746902153756 -0.17324025623251363 -0.20147880355434813 -0.2286241129764092
          -0.20147880355436198 -0.174657890943537 -0.19392389555644096 -0.19904930001806267 -0.2255542475100779 -0.19904930001807625
          -0.1728949205740321 -0.20165064983640238 -0.19898288397277106 -0.15579957971114175 -0.1978514733406571 -0.19785147334066946
          -0.1557995797111544 -0.17653143689143574 -0.19787536812563342 -0.17653143689144807 -0.1557125982888573 -0.16363262486153002
          -0.2098455275586014 -0.2098455275586142 -0.16363262486154298 -0.17658540256790656 -0.1864138817220912 -0.20986177067490552
          -0.18641388172210394 -0.16349310572966355 -0.18646000499970858 -0.13554954541909806 -0.1677247144306885 -0.16772471443069986
          -0.13554954541911 -0.15140448070370516 -0.16776749314848005 -0.15140448070371654 -0.13551510689816668 -0.1463363307394849
          -0.1836484996384975 -0.18364849963850932 -0.14633633073949726 -0.15144233316674058 -0.16473636033635586 -0.18368341669920488
          -0.16473636033636774 -0.14626244473283367 -0.16476851149900568 -0.11137619972359218 -0.1326648008918011 -0.13266480089181143
          -0.111376199723603 -0.12185741964543195 -0.13272434791943177 -0.12185741964544225 -0.11142965834353817 -0.12378541863795713
          -0.15055246905475594 -0.1505524690547668 -0.1237854186379685 -0.12190329827352286 -0.13698299639129943 -0.150605782030029
          -0.1369829963913103 -0.1238047584265864 -0.13702830184192547 -0.08596050008739713 -0.0965897436179001 -0.09658974361790923
          -0.08596050008740659 -0.09118982720089706 -0.09666144490714916 -0.09118982720090621 -0.08610053927453064 -0.0986634693668479
          -0.11450662047607198 -0.11450662047608165 -0.09866346936685806 -0.09124917594737408 -0.1064730075321458 -0.11457489399134363
          -0.10647300753215554 -0.09875928984998236 -0.10651730287859043 -0.06177168727221144 -0.06305369138703278 -0.0630536913870407
          -0.0617716872722194 -0.06237394042174761 -0.06313164697571873 -0.06237394042175556 -0.06195458487503236 -0.07357652362914048
          -0.07929574645875372 -0.07929574645876225 -0.0735765236291492 -0.062440488619302216 -0.07639583088555549 -0.07937206142402825
          -0.07639583088556404 -0.07375352060971804 -0.07646003894188685 -0.1742332999154249 -0.13882552045373642 -0.13882552045375168
          -0.17423329991544018 -0.17427594877670316 -0.1389475166564309 -0.1389475166564461 -0.17427594877671843 -0.15654075528498052
          -0.13882203113072578 -0.15654075528499578 -0.17422894668996328 -0.17425184770543614 -0.13887321601268135 -0.1388732160126966
          -0.17425184770545138 -0.1566422166426069 -0.13894142560863834 -0.1566422166426221 -0.1742531172060801 -0.15653750587293044
          -0.15658244910600053 -0.1388676357564897 -0.1565824491060158 -0.1742402588650973 -0.15663035704705175 -0.15657504896422877
          -0.17420834081352743 -0.13877634277557685 -0.13877634277559214 -0.17420834081354275 -0.15649723489409997 -0.1387758474459942
          -0.15649723489411532 -0.1742080058713219 -0.17421883716553357 -0.13879399583302143 -0.1387939958330367 -0.1742188371655488
          -0.15649672685133792 -0.15651425308751732 -0.13879259618274448 -0.15651425308753258 -0.17421735111248945 -0.1565128532675852
          -0.17419602968886588 -0.13876399460654373 -0.138763994606559 -0.17419602968888118 -0.15648016382431534 -0.13876365951923836
          -0.15648016382433064 -0.17419605401306826 -0.17420098600089146 -0.13876877658560666 -0.13876877658562195 -0.17420098600090672
          -0.156479968548226 -0.1564869871136952 -0.13876849451576936 -0.15648698711371045 -0.17420093434485057 -0.15648674267947243
          -0.17424319205034602 -0.13883596159170714 -0.17434018457320924 -0.13897391534774706 -0.15655060074336744 -0.13883101739985115
          -0.1742396093144326 -0.17428498350538757 -0.1388931361593442 -0.1566789146293191 -0.13895755014187397 -0.17431632464923763
          -0.15654601823861225 -0.15660558861615514 -0.13888254834441852 -0.17426988725088444 -0.15666123682780198 -0.15659400025903647
          -0.17420904784694746 -0.13877903603367625 -0.1564996665021235 -0.13877714610276087 -0.17420873821459743 -0.1742218368121475
          -0.13879914806437563 -0.15649817560091017 -0.15651871688838734 -0.1387961288935908 -0.17422072266840896 -0.15651631128299162
          -0.17419582658066557 -0.13876555605153296 -0.15648119750963377 -0.13876465561762188 -0.17419591973805787 -0.1742010044676883
          -0.1387704662123301 -0.1564805266880394 -0.15648830818158335 -0.1387693736351594 -0.17420100283200374 -0.1564874985682987
          -0.1387655560515712 -0.1741958265807038 -0.13877903603371453 -0.17420904784698568 -0.15648119750967204 -0.17419591973808465
          -0.1387646556176486 -0.13877046621236835 -0.17420100446772654 -0.1564996665021617 -0.17420873821462415 -0.1387771461027876
          -0.15648052668806622 -0.15648830818162157 -0.17420100283203055 -0.13876937363518616 -0.1564981756009369 -0.15648749856832544
          -0.1388359615917453 -0.17424319205038424 -0.13879914806441382 -0.17422183681218573 -0.15655060074340563 -0.17423960931445928
          -0.13883101739987785 -0.15651871688842556 -0.17422072266843566 -0.13879612889361756 -0.15654601823863895 -0.15651631128301838
          -0.13897391534778514 -0.1743401845732474 -0.13889313615938234 -0.17428498350542573 -0.15667891462935718 -0.17431632464926425
          -0.13895755014190062 -0.1566055886161933 -0.1742698872509112 -0.13888254834444516 -0.1566612368278286 -0.15659400025906317
          -0.23614908884755412 -0.23614908884756944 -0.23595990796441868 -0.23595990796443397 -0.2051709408073505 -0.20517094080736573
          -0.23614183170262543 -0.23607522014850452 -0.2360752201485198 -0.20506701848853393 -0.20506701848854922 -0.23590468121755714
          -0.2051651931882364 -0.20513465155805902 -0.20513465155807425 -0.23605026623452594 -0.20503552452158674 -0.2051167053698009
          -0.23620803536917181 -0.2362080353691872 -0.20519700899511492 -0.2051970089951302 -0.2362080838201295 -0.23619028850112633
          -0.23619028850114163 -0.20519714361947866 -0.20518920416902434 -0.20518920416903963 -0.236188047563108 -0.20518772342652333
          -0.23621292065915375 -0.236212920659169 -0.20519877390468502 -0.2051987739047003 -0.23621358713923063 -0.23621258584662827
          -0.23621258584664356 -0.20519922510144964 -0.20519925991538218 -0.20519925991539745 -0.23621314500929014 -0.20519969298695204
          -0.23615699332342013 -0.23613577612510023 -0.20517864685174877 -0.23616081905276837 -0.23613959894149228 -0.20517812964545926
          -0.23610037759759728 -0.20517968006885862 -0.20518324639441474 -0.23611309266053718 -0.20515101324292118 -0.20516284043027722
          -0.23620305952344262 -0.20519379806635943 -0.23620688372231852 -0.23618666257389112 -0.20519608369756992 -0.20518732969684375
          -0.23619187510478679 -0.20519002398463873 -0.236209192466193 -0.2051961474485908 -0.23621138950611345 -0.23620857079178761
          -0.20519777504133818 -0.20519646248665896 -0.23621116079025598 -0.2051982402805358 -0.23620919246623126 -0.2362030595234809
          -0.20519614744862905 -0.2362113895061403 -0.23620857079182597 -0.2051937980663977 -0.23620688372234527 -0.2051977750413649
          -0.20519646248669723 -0.23621116079028281 -0.2051960836975967 -0.2051982402805626 -0.2361569933234584 -0.23618666257392942
          -0.205178646851787 -0.23616081905279515 -0.205187329696882 -0.23619187510481354 -0.2051796800688854 -0.20519002398466554
          -0.23613577612513853 -0.23613959894153058 -0.2051781296454975 -0.23610037759762406 -0.20518324639445296 -0.23611309266056402
          -0.20515101324294793 -0.20516284043030394 0.00005848353225914536 0.00008550825205326683 0.00008550825205321915 0.00005848353225907907
          0.0005291423831839827 0.0002801559286651743 0.0002801559286650865 0.0005291423831836758 0.00007370853704097223 0.00009049076270423947
          0.0000737085370409147 0.00008550060147013112 0.0003454281196064078 0.00020674913968655493 0.00020674913968647275 0.00034542811960616904
          0.0003760356580632925 0.0002898736175329514 0.0003760356580631411 0.0006011071156662912 0.00008762044447404529 0.000256569892893047
          0.00021421762738207468 0.0002565698928929265 0.0003874117947747325 0.0004091579446718628 0.0002802763579995928 0.00008814124880543537
          0.00008814124880539729 0.00020752861516073988 0.00020752861516068052 0.00008817650218757084 0.00008824161069572962 0.00008817650218752872
          0.00016547740218792397 0.00016547740218786502 0.00022819398691339109 0.00020738281495743412 0.00022819398691332538 0.00008965326078402186
          0.00017939440511167352 0.00016515705696267566 0.0001793944051116058 0.00023111521267564063 0.00018120613193112135 0.00009534360086807928
          0.00009534360086804516 0.00020292418644111696 0.00020292418644105888 0.00009080957849079035 0.00009546764671112782 0.00009080957849075355
          0.00016062319421180987 0.00016062319421175677 0.0002032619947641222 0.00020200699943543815 0.00020326199476406237 0.00009073133006945718
          0.00016050289961941483 0.000159999047184686 0.00016050289961936102 0.0002024097620513459 0.0001598603487857197 -0.00001697046870475393
          0.00007473361890106914 0.0002975188570235652 0.00026982873659826584 0.00003267614419825145 0.00007838828925019284 0.000010291938692760363
          0.00019819365589745616 0.00019665753607855225 0.00029018285986364274 0.00026454661765326447 0.00034500020238867617 0.00005161848401163252
          0.00019216457457477208 0.00019542858327200983 0.000235527859718534 0.00032529631688319333 0.0002195393134233655 0.00008872764290699794
          0.00021434615089121673 0.00008632626404711876 0.00008829791076150283 0.00017023028114287938 0.00023313408434212952 0.0002092018765002991
          0.00008658093786681394 0.00018231257338432975 0.00016694877106201528 0.00022614948075858136 0.00017854653677436196 0.00009515629189946838
          0.00020834734769191693 0.00009122889662099615 0.00009517208014097048 0.0001647725362742318 0.00020893531830925175 0.00020521148710075793
          0.00009088655556931124 0.0001647645561106811 0.00016205255134822024 0.00020531498922988042 0.00016204510614342352 0.00009515629189937869
          0.00008872764290690896 0.00020834734769176834 0.00021434615089106407 0.00009122889662091017 0.00008829791076143662 0.00009517208014090716
          0.00016477253627410175 0.0001702302811427393 0.00020893531830910481 0.0002092018765001922 0.00020521148710065393 0.00009088655556924997
          0.0001647645561105499 0.00016694877106191458 0.00016205255134812933 0.00020531498922977975 0.00016204510614332935 0.00007473361890095456
          0.0002698287365980362 0.00008632626404701904 0.00007838828925011158 0.000196657536078349 0.00023313408434195152 0.0002645466176531183
          0.00008658093786674073 0.0001823125733841643 0.00019542858327187236 0.00022614948075846261 0.00017854653677424676 -0.00001697046870479287
          0.0002975188570232575 0.00003267614419814981 0.000010291938692729377 0.00019819365589721666 0.0002901828598633656 0.0003450002023884427
          0.000051618484011552374 0.00019216457457455342 0.000235527859718348 0.00032529631688297926 0.00021953931342319572 0
          0 0 0 0.0000421109520288022 0 0.00004211095202878043
          0 0 0.00005278904731470482 0 0.00005278904731468386 0.000042226228552692544
          0.00004255924760071309 0 0.00004255924760069368 0.00005303400301837085 0.00004261252849024055 0
          0 0.000031866716556247 0 0.00003186671655621817 0 0
          0.00003471419854112954 0.0000397426467793115 0 0.00003974264677928674 0.000040649275049072355 0
          0 -0.00004861945131735691 0 -0.00004861945131743007 0 0
          -0.000036739542253329826 0.00001020563531562352 0 0.000010205635315582364 0.000017318386407734344 0
          0 0.000041704207280435355 0 0 0.000048649899151965436 0
          0.00004198416305719989 0.000041566147756153377 0 0.00005178836826180599 0.000042488040791324505 0
          0.00002404631575026923 0 0 0.000027542312669704985 0.00003787760499769002 0
          0.00003872092311792421 0 -0.00009515179722353899 0 0 -0.00006835671038962247
          -0.000013391426785150243 0 -6.082532163474303e-7 0 0 -0.0000951517972236521
          0 0 0.00002404631575020302 0 -0.00006835671038972619 -0.00001339142678522857
          0 0.000027542312669655905 -6.082532164086572e-7 0 0 0.000041704207280384696
          0 0.00003787760499763239 0 0.00004198416305716298 0.00003872092311788215 0
          0 0.0000486498991519186 0 0.000041566147756108335 0 0.000051788368261772056
          0.00004248804079129104 -0.14103732597571947 -0.1410373259757063 -0.14346463856713354 -0.14346463856711983 -0.15509163916605115
          -0.14107056775821875 -0.15509163916603796 -0.143161950097044 -0.14316195009703056 -0.15926076292123786 -0.14347293510781256
          -0.15926076292122426 -0.15510722912279534 -0.15801423722604213 -0.14318157886411184 -0.1580142372260287 -0.15925132777260156
          -0.15801531575679958 -0.13190284587972903 -0.1319028458797166 -0.14380436822490458 -0.13197405615283636 -0.14380436822489195
          -0.1372396100505662 -0.13723961005055343 -0.14386549778178162 -0.15038662224943725 -0.13729111962698193 -0.15038662224942428
          -0.15042200692419333 -0.1175415437590198 -0.11754154375900823 -0.12644071388115763 -0.11765409037616058 -0.12644071388114578
          -0.12528026468291745 -0.12528026468290543 -0.1265497640237288 -0.13571448282058454 -0.12537252740211277 -0.13571448282057225
          -0.1358018768816592 -0.09980517830396388 -0.09980517830395336 -0.10546907546285895 -0.09995466442475474 -0.10546907546284817
          -0.10899178676189257 -0.10899178676188151 -0.10561937335545282 -0.11627778739504917 -0.10912424022234693 -0.1162777873950378
          -0.11640719169312572 -0.08063746561306401 -0.08063746561305474 -0.08318251479290863 -0.08081256829809907 -0.0831825147928992
          -0.09030491746610925 -0.09030491746609934 -0.08336270041202759 -0.09435183492820057 -0.09046964826019595 -0.09435183492819042
          -0.09452037140398734 -0.061858136421002755 -0.06185813642099481 -0.06169063065868892 -0.062044975227301326 -0.061690630658680974
          -0.07111258283633538 -0.07111258283632675 -0.061880999623504684 -0.07223230823805585 -0.07129588560286258 -0.07223230823804712
          -0.07241827673065242 -0.14093785602187509 -0.16954044179003372 -0.14348078220646393 -0.1746741647015389 -0.1409927522989066
          -0.15499613640938764 -0.16958392754363563 -0.14313330720195253 -0.17333640860834093 -0.143463134015189 -0.15907320647941478
          -0.17465647834716905 -0.15508980240036246 -0.14314427047815054 -0.15803083225719744 -0.1733419380502519 -0.15923067056696386
          -0.15805663018013777 -0.1316264874833167 -0.15558646908803123 -0.13178561624345503 -0.14341346087198312 -0.15572862071236102
          -0.13705373891705655 -0.1635355669937084 -0.1436763733780031 -0.1371595262788394 -0.1500883310777078 -0.16362440626182434
          -0.15030484625421892 -0.11708021540516081 -0.13509401406036087 -0.117344429457285 -0.12590572248664655 -0.13533817901283346
          -0.12490818197640803 -0.14599872391904667 -0.12623270196579914 -0.12512072806668983 -0.135265471494476 -0.14618795751380703
          -0.13555015114171562 -0.09918146234649343 -0.11070276774615895 -0.09953717387235568 -0.1047788082909815 -0.1110369890649826
          -0.10844173377689038 -0.12321128105109315 -0.1051803673933361 -0.1087543987437962 -0.11565321272194652 -0.12349713749772497
          -0.1160240602005779 -0.07989782335832867 -0.08513080501532727 -0.0803186413434518 -0.082384481489299 -0.08552884981421872
          -0.08961196999652832 -0.09789752868840376 -0.08283536366125706 -0.09000467494988817 -0.09360455365514422 -0.09826051024328358
          -0.09403011203147117 -0.06107089704097042 -0.0608784395742869 -0.061518700086067295 -0.06086081448649038 -0.06129994157460976
          -0.07033828703466212 -0.07269656637239506 -0.0613181405967767 -0.07077679966682117 -0.07140164075599792 -0.07310553280911293
          -0.07186509907903411 -0.06087843957430688 -0.06107089704099031 -0.08513080501535128 -0.07989782335835209 -0.06086081448651031
          -0.06151870008608119 -0.06129994157462373 -0.0726965663724171 -0.0703382870346838 -0.08238448148932274 -0.08031864134346808
          -0.08552884981423556 -0.061318140596790645 -0.07140164075601978 -0.0707767996668363 -0.07310553280912836 -0.08283536366127363
          -0.07186509907904938 -0.11070276774618648 -0.09918146234652005 -0.09789752868842963 -0.08961196999655342 -0.10477880829100858
          -0.0995371738723742 -0.11103698906500192 -0.09360455365516974 -0.09000467494990563 -0.09826051024330175 -0.10518036739335501
          -0.09403011203148896 -0.13509401406039112 -0.11708021540519009 -0.12321128105112213 -0.10844173377691843 -0.12590572248667636
          -0.11734442945730536 -0.1353381790128547 -0.11565321272197505 -0.10875439874381568 -0.12349713749774534 -0.12623270196581998
          -0.11602406020059783 -0.15558646908806326 -0.13162648748334804 -0.14599872391907792 -0.12490818197643842 -0.14341346087201484
          -0.13178561624347687 -0.15572862071238347 -0.13526547149450685 -0.12512072806671098 -0.146187957513829 -0.14367637337802525
          -0.13555015114173713 -0.1695404417900669 -0.140937856021908 -0.16353556699374105 -0.1370537389170888 -0.15499613640942078
          -0.14099275229892963 -0.16958392754365886 -0.15008833107774028 -0.13715952627886183 -0.16362440626184727 -0.1550898024003856
          -0.15030484625424165 -0.17467416470157293 -0.1434807822064981 -0.17333640860837454 -0.14313330720198617 -0.15907320647944892
          -0.14346313401521302 -0.1746564783471928 -0.15803083225723108 -0.14314427047817407 -0.17334193805027537 -0.15923067056698773
          -0.1580566301801613 0.0012492678444392248 0.000012272436076120101 0.000012272436075918247 0.0012492678444382627 0.0007346830424288177
          0.00006016108796234998 0.0007346830424280309 0.0012545587349354472 0.0008672724455723431 0.00002933627565516556 0.00002933627565504892
          0.000867272445571686 0.0007281605254457667 0.0005408051339247358 0.00007291878970245543 0.0005408051339242019 0.0008659850655629623
          0.0005299305205167329 0.0022420784300960827 -0.000030687188949615766 -0.000030687188950073117 0.0022420784300947088 0.0012168861852003487
          0.00001800845591518631 0.0012168861851991825 0.002246249500598864 0.0017109587425301082 -0.000007064085868208941 -0.000007064085868533925
          0.0017109587425289245 0.0012071470249171775 0.0009612493722703205 0.00004110337956086478 0.0009612493722693337 0.0017158381488821181
          0.0009519822706677412 0.003508327878147706 -0.00008814745370856281 -0.00008814745370930614 0.0035083278781460037 0.0018217976123923892
          -0.00003958463948852728 0.0018217976123909097 0.003512818214642164 0.0028416715060205536 -0.00005733926526514739 -0.00005733926526574609
          0.00284167150601901 0.0018118840359627351 0.0015035013474517013 -0.000008969127545915095 0.001503501347450376 0.0028462499316488318
          0.0014938037062122347 0.005050200234782895 -0.00016301813851316526 -0.00016301813851421964 0.005050200234780882 0.0025520462341102374
          -0.00011348494844853 0.0025520462341084545 0.005054361427044325 0.004244605004737258 -0.0001228896004640249 -0.000122889600464919
          0.004244605004735408 0.0025428429096343635 0.0021712230975354453 -0.00007426917332256583 0.002171223097533817 0.00424881558756337
          0.002161403878205168 0.006881239378284047 -0.00025613034563341444 -0.00025613034563479723 0.006881239378281735 0.0034073626295736898
          -0.00020340311977067935 0.003407362629571591 0.006887076103427246 0.005930531541284424 -0.00020817311858758534 -0.00020817311858879802
          0.005930531541282271 0.00339877988897066 0.002963307999019516 -0.00015732533640786054 0.002963307999017573 0.005934363374549169
          0.0029551672311622047 0.008929498612778891 -0.0002951626322893373 -0.00029516263229108 0.008929498612776256 0.004419921093663023
          -0.00021327782907411912 0.004419921093660573 0.008943183726713773 0.00789469486939732 -0.00029242425289264466 -0.0002924242528942032
          0.007894694869394852 0.004443841579386869 0.0038892392275504495 -0.00023308084852085618 0.0038892392275481865 0.007904349644527147
          0.0038855034066239357 -0.17432631707676596 -0.23539911822014414 -0.23539911822015933 -0.17432631707678112 -0.20476185410566086
          -0.2353940372758484 -0.20476185410567607 -0.17427964238662716 -0.17430566864828123 -0.2356996084582064 -0.23569960845822163
          -0.17430566864829636 -0.20476830146646885 -0.20491602285202717 -0.23569964011338015 -0.2049160228520424 -0.1742667859297388
          -0.20492605042487952 -0.1743524513349305 -0.23458791484738256 -0.23458791484739774 -0.17435245133494545 -0.20436070781243534
          -0.23458363457018716 -0.20436070781245047 -0.17430396467371387 -0.17433885447536177 -0.23502648475117924 -0.2350264847511944
          -0.17433885447537678 -0.204370941521432 -0.2045763308753067 -0.23502173352967573 -0.20457633087532184 -0.17429117216920859
          -0.2045849634949296 -0.17438664338542012 -0.23350694141979653 -0.23350694141981157 -0.17438664338543483 -0.20383546010798
          -0.23350247152669543 -0.20383546010799497 -0.1743374824014312 -0.17436763323605844 -0.23408098013244344 -0.23408098013245857
          -0.1743676332360733 -0.20384356484157187 -0.2041139396702003 -0.23407649676580589 -0.20411393967021535 -0.17431934396608162
          -0.20412445341407143 -0.17443775469544945 -0.23214963908551858 -0.23214963908553338 -0.17443775469546388 -0.2031849699485751
          -0.23214544950418317 -0.20318496994858976 -0.17439050242919416 -0.1744095210284018 -0.23286292941626593 -0.23286292941628087
          -0.17440952102841636 -0.2031989320933008 -0.20352591205567455 -0.23285872216595427 -0.20352591205568937 -0.17436055196272135
          -0.20353349710207982 -0.1745071464639862 -0.23050418684115895 -0.2305041868411733 -0.17450714646400026 -0.2024093849631789
          -0.23049841810586547 -0.20240938496319325 -0.174458941637727 -0.17447095303647306 -0.23136198391977986 -0.2313619839197944
          -0.17447095303648727 -0.2024083408950066 -0.20281353978968336 -0.23135809507932575 -0.2028135397896979 -0.17442488039175816
          -0.2028282231075149 -0.1745331529752808 -0.229583178492598 -0.2295831784926122 -0.17453315297529462 -0.20196791607191492
          -0.22957378912016038 -0.20196791607192902 -0.17452900674136265 -0.20200054421541133 -0.13923504508420567 -0.13926841756418853
          -0.17446200431616246 -0.1568182962248032 -0.13925290930005674 -0.1568682152265978 -0.17443967107480193 -0.139063706854532
          -0.13909608179652144 -0.17442136212933906 -0.15684572186030793 -0.1567181391610569 -0.13908070062952502 -0.15676042503391482
          -0.17440387467433072 -0.15674043728758877 -0.1397368980074528 -0.1397735098332533 -0.17449678497854554 -0.1570839711718035
          -0.13975919889540686 -0.15713724222045541 -0.17447219430743677 -0.1394638214404753 -0.13949960112242785 -0.17448111340632536
          -0.15711449488522883 -0.15693952304196118 -0.13948458317541476 -0.15699290362307208 -0.1744569441492826 -0.15696891421361428
          -0.14041204801092105 -0.14044876609220877 -0.17453106949485725 -0.15743655403444767 -0.14043525296258058 -0.15749196900743556
          -0.1745063204493208 -0.1400545369434203 -0.1400911570125906 -0.17451164884913556 -0.15746692232039727 -0.15725011781542766
          -0.14007733536644526 -0.15730344046986214 -0.1744868470127172 -0.1572810771325206 -0.1412479027901191 -0.14128546420200647
          -0.17458521073242542 -0.15788617892605572 -0.14127076051398718 -0.1579375030241264 -0.17455963731959767 -0.14081111731013912
          -0.14084807216910786 -0.17455449861104166 -0.15791810234652867 -0.1576472342838537 -0.14083422464884518 -0.15770327168382314
          -0.17452936331058067 -0.1576775440900787 -0.1422397907380415 -0.14227894407544844 -0.1746634046916479 -0.15841053300883023
          -0.1422588004095437 -0.1584736410824209 -0.1746367745818335 -0.14172408375384027 -0.1417626263000545 -0.17462229985688701
          -0.15843579342261568 -0.15814363203368548 -0.14174567489916326 -0.15819473022921782 -0.17459571578148825 -0.15817524045062853
          -0.14280858135819144 -0.1428437082760378 -0.17468945676055872 -0.1587619160928876 -0.14282038879114037 -0.15877207209624083
          -0.17466479107293242 -0.15876998109474652 -0.13923504508422077 -0.15681829622481833 -0.13923042804113647 -0.13906370685454722
          -0.15679662180491194 -0.15671813916107205 -0.13905880615546337 -0.15670132998663186 -0.13973689800746775 -0.15708397117181844
          -0.13972929888416963 -0.13946382144049038 -0.15706000067101814 -0.1569395230419762 -0.1394572893479775 -0.15691631057010424
          -0.14041204801093582 -0.15743655403446238 -0.1404035908543907 -0.1400545369434352 -0.15741247936069397 -0.1572501178154425
          -0.14004636554284478 -0.15722585323351734 -0.14124790279013358 -0.15788617892607013 -0.1412401622183786 -0.14081111731015375
          -0.15786110122147587 -0.1576472342838683 -0.1408028268056901 -0.1576230270580815 -0.14223979073805562 -0.1584105330088443
          -0.14223651792280173 -0.1417240837538546 -0.15838967856769084 -0.15814363203369972 -0.14171801833209335 -0.15811895439969728
          -0.14280858135820537 -0.15876191609290147 -0.14281048541147606 -0.15874688536010664 -0.1746634046916829 -0.14227894407548372
          -0.17468945676059328 -0.14284370827607262 -0.15847364108245607 -0.14225880040956843 -0.17463677458185795 -0.15877207209627547
          -0.14282038879116477 -0.17466479107295654 -0.15843579342264028 -0.15876998109477075 -0.17458521073246136 -0.14128546420204263
          -0.17462229985692254 -0.1417626263000903 -0.15793750302416246 -0.14127076051401252 -0.1745596373196228 -0.15819473022925346
          -0.14174567489918832 -0.17459571578151303 -0.1579181023465539 -0.15817524045065343 -0.17453106949489394 -0.14044876609224563
          -0.17455449861107802 -0.14084807216914444 -0.1574919690074724 -0.14043525296260642 -0.17450632044934644 -0.1577032716838596
          -0.1408342246488708 -0.17452936331060606 -0.15746692232042303 -0.15767754409010415 -0.17449678497858284 -0.13977350983329073
          -0.1745116488491726 -0.14009115701262784 -0.1571372422204928 -0.13975919889543303 -0.17447219430746283 -0.15730344046989925
          -0.14007733536647127 -0.17448684701274306 -0.15711449488525497 -0.1572810771325466 -0.17446200431620018 -0.1392684175642263
          -0.17448111340636288 -0.1394996011224655 -0.15686821522663555 -0.1392529093000832 -0.17443967107482833 -0.1569929036231097
          -0.13948458317544113 -0.17445694414930885 -0.15684572186033435 -0.15696891421364054 -0.17442136212937692 -0.13909608179655944
          -0.15676042503395282 -0.13908070062955158 -0.17440387467435722 -0.15674043728761533 -0.0004875312107187518 -0.00013044975015280176
          -0.0005235973699959615 -0.0002770655032839365 -0.00010539843570930091 -0.00033205184272379844 -0.000509440401847588 -0.00022931308667653184
          -0.00010365546884843636 -0.0002711719957809487 -0.00030755798101433224 -0.00013904530879661645 -0.00008141590867254764 -0.00019092092309966934
          -0.00024487199437932966 -0.00016376460001099136 -0.0011384448410429854 -0.00017533405316777782 -0.001175700762452387 -0.0006232868013897696
          -0.0001507116959563688 -0.0006774735725033578 -0.0011618473963174683 -0.0007935939962603456 -0.00015179400825807152 -0.0008306000592586846
          -0.0006540182405599075 -0.00043896678585726885 -0.00012643469719175092 -0.0004939834933848684 -0.0008154631989731359 -0.000469843956124882
          -0.001953472868043921 -0.00023241922752700663 -0.001990198642462844 -0.001059545268425642 -0.0002077404127063035 -0.0011133368343740331
          -0.001976822890152251 -0.0015263327553738857 -0.00020118431849881812 -0.0015629267173125417 -0.0010903039092981551 -0.0008301689031219498
          -0.00017640502549285593 -0.0008840480149806665 -0.0015494145704864045 -0.000860896912498835 -0.0029284491223641376 -0.0003107683615223008
          -0.002966099886667578 -0.0015845607613247216 -0.0002851195029634675 -0.0016406130013043427 -0.002951255616341122 -0.002422145823581034
          -0.00026790313311162995 -0.0024591084645211396 -0.0016159473880201323 -0.0013111010204989756 -0.00024276124991105932 -0.001365488130197693
          -0.002445274348790205 -0.0013421636453456957 -0.004059352400925449 -0.00041307793350698566 -0.004098602539014574 -0.002199915494784553
          -0.0003863588126048681 -0.002258356293721944 -0.004077824989701407 -0.0034740265846398533 -0.00036012423283463647 -0.003512732074363132
          -0.0022314201099036613 -0.0018804110075842332 -0.0003333944081207694 -0.0019387293299800235 -0.003495419056911325 -0.0019121320547998155
          -0.005430898093502977 -0.0004368184386351202 -0.005444130850912531 -0.002860677756846435 -0.00042086222963427555 -0.002935731004947042
          -0.005426716388592178 -0.004699102734331579 -0.0004484551151392352 -0.0047336347369695215 -0.002884496201609009 -0.002534104500037728
          -0.00042421120249516513 -0.002596910729091546 -0.004709589882935242 -0.002564890420350663 -0.0004875312107192559 -0.0002770655032841933
          -0.0004834176535046998 -0.00022931308667683458 -0.0002536200737880861 -0.00013904530879675335 -0.0002255762498438489 -0.00012149364380652781
          -0.0011384448410437637 -0.0006232868013902782 -0.0011305111727029167 -0.0007935939962609894 -0.000599067930852247 -0.00043896678585764854
          -0.000785809771760976 -0.0004148014525145716 -0.0019534728680449804 -0.0010595452684264322 -0.001944921505920408 -0.0015263327553748025
          -0.0010352364662260644 -0.0008301689031225963 -0.0015178155355516467 -0.0008058848882943606 -0.0029284491223655015 -0.0015845607613258152
          -0.0029208014808426463 -0.0024221458235822433 -0.0015598551387790431 -0.0013111010204999154 -0.002413837781813984 -0.0012865996411434654
          -0.004059352400927138 -0.0021999154947859806 -0.0040566541548041 -0.0034740265846413755 -0.0021753420465626086 -0.0018804110075854934
          -0.0034682341199084124 -0.0018556031601516057 -0.005430898093505066 -0.00286067775684821 -0.005441066621312605 -0.004699102734333454
          -0.002843397528772322 -0.002534104500039335 -0.0047021484040793175 -0.002511766525133991 -0.00544413085091728 -0.0004368184386389605
          -0.004098602539018383 -0.00041307793350999443 -0.002935731004951331 -0.0004208622296368866 -0.00542671638859571 -0.004733634736973786
          -0.0004484551151426754 -0.0022583562937253387 -0.0003863588126069007 -0.004077824989704254 -0.0028844962016120607 -0.002596910729095381
          -0.00042421120249749216 -0.004709589882938408 -0.0022314201099060947 -0.0025648904203534025 -0.00296609988667057 -0.0003107683615244793
          -0.0035127320743665313 -0.0003601242328372233 -0.001640613001306909 -0.0002851195029649105 -0.002951255616343395 -0.0019387293299829983
          -0.0003333944081225059 -0.0034954190569138816 -0.0016159473880219893 -0.0019121320548019553 -0.0019901986424650645 -0.00023241922752840726
          -0.0024591084645237448 -0.0002679031331134133 -0.0011133368343758344 -0.0002077404127072118 -0.001976822890153991 -0.0013654881301998708
          -0.00024276124991222842 -0.00244527434879221 -0.0010903039092994746 -0.0013421636453472786 -0.0011757007624539034 -0.00017533405316848304
          -0.0015629267173144091 -0.00020118431849986882 -0.000677473572504455 -0.00015071169595678598 -0.0011618473963187184 -0.0008840480149821047
          -0.0001764050254935124 -0.0015494145704878924 -0.0006540182405607367 -0.000860896912499902 -0.0005235973699968188 -0.00013044975015293425
          -0.0008306000592598763 -0.00015179400825846896 -0.0003320518427242886 -0.00010539843570932262 -0.0005094404018483708 -0.000493983493385646
          -0.00012643469719195256 -0.0008154631989741526 -0.00030755798101473247 -0.00046984395612548776 -0.00027117199578143686 -0.00010365546884846444
          -0.0001909209230999008 -0.00008141590867251875 -0.000244871994379798 -0.00016376460001119795 -0.007787202617400822 -0.001170867484124586
          -0.001162460943336271 -0.007673877333751961 -0.004546864226371184 -0.0012136492400061753 -0.0044496745066968536 -0.007735862222812478
          -0.006357481548194042 -0.0004749450002600677 -0.0005596547184908298 -0.006321198747874357 -0.0044970185457037055 -0.0034968479821197713
          -0.0005694758114951331 -0.003474862991724754 -0.00633529744210045 -0.003482059206009627 -0.012437487236151474 -0.004731291828618748
          -0.004480628412268271 -0.012136553758135809 -0.008575080316684391 -0.004636670857502896 -0.008309984454853914 -0.01230932250167031
          -0.009794326442150617 -0.002537567658301213 -0.0024101784329039326 -0.009588578134957565 -0.008446663461455941 -0.006179569754901736
          -0.0025099909823131606 -0.006015075398465555 -0.009705136538046355 -0.006096553435627583 -0.019972883581611638 -0.012088035030465459
          -0.011588732263391266 -0.01948291136346382 -0.015994956668201228 -0.011849099310050997 -0.015512619849782722 -0.01976313032329058
          -0.015824307359945822 -0.007875067118168254 -0.007495178592239889 -0.015424536005568921 -0.01577012055974728 -0.011831108610730208
          -0.007699751570294503 -0.01144955579809691 -0.015652465165857117 -0.011650991262798536 -0.03079084345790981 -0.024004722008394343
          -0.02329334417629851 -0.0301423256588144 -0.027324459051843383 -0.023641609077100677 -0.026666094583930842 -0.03051190048297596
          -0.02497657051365536 -0.017445298307260906 -0.016828708827920487 -0.024398737626989592 -0.027021387654101833 -0.021149979844646373
          -0.017129985060603082 -0.02057633734913896 -0.02472686381254758 -0.020882939319990756 -0.044913333403925934 -0.04072086084632932
          -0.03986927245185897 -0.04415937420511812 -0.042703366072252745 -0.04027543849302813 -0.041925101233581556 -0.04458819451192251
          -0.03747696356552083 -0.03177179796910297 -0.030974803309679378 -0.0367636868392569 -0.042350568188378734 -0.03453236567327349
          -0.031349060903307524 -0.03380003420534615 -0.037167712562460604 -0.03419663476558632 -0.05310167461463076 -0.05076627970011449
          -0.04987492965817967 -0.05231990736253545 -0.051797438520684046 -0.050288049125608435 -0.050989375030756366 -0.052762564874489055
          -0.051432044680319484 -0.007787202617403421 -0.0011708674841267822 -0.004546864226373416 -0.0012290013527756947 -0.007823986829330562
          -0.006357481548196363 -0.00047494500026201394 -0.004559404314445559 -0.003496847982121756 -0.000504160893632226 -0.006379719313433177
          -0.003491376052708028 -0.012437487236154808 -0.004731291828621601 -0.008575080316687298 -0.004804003354151807 -0.012514203457257313
          -0.009794326442153554 -0.0025375676583037025 -0.008633385611976503 -0.006179569754904276 -0.002588780574025235 -0.009850445671603888
          -0.0062142869058286095 -0.0199728835816159 -0.012088035030469265 -0.01599495666820509 -0.012227865860654287 -0.020091704322061227
          -0.015824307359949594 -0.007875067118171545 -0.01610268840573028 -0.011831108610733559 -0.007990376765391816 -0.015922634744760873
          -0.011913827564206291 -0.030790843457915173 -0.02400472200839937 -0.027324459051848462 -0.02418357322507469 -0.030945758186362332
          -0.024976570513660156 -0.017445298307265288 -0.027475124185538723 -0.021149979844650824 -0.017608226174681836 -0.02511507401096706
          -0.021281484535164402 -0.044913333403932554 -0.04072086084633577 -0.042703366072259226 -0.04090475852850509 -0.04509157033304727
          -0.037476963565526794 -0.031771797969108666 -0.042883346621254204 -0.034532365673279254 -0.03196680960339254 -0.03764612119772825
          -0.03469897216264095 -0.053101674614638036 -0.05076627970012168 -0.051797438520691255 -0.05094140069548331 -0.05328658539786285
          -0.05198514395796194 -0.04415937420513445 -0.03986927245187484 -0.05231990736255355 -0.049874929658197543 -0.041925101233597654
          -0.0402754384930392 -0.04458819451193405 -0.05098937503077436 -0.05028804912562095 -0.05276256487450174 -0.042350568188390045
          -0.051432044680332085 -0.030142325658827407 -0.023293344176310612 -0.036763686839271566 -0.030974803309693284 -0.02666609458394338
          -0.023641609077109063 -0.030511900482985264 -0.0338000342053604 -0.03134906090331722 -0.03716771256247102 -0.027021387654110655
          -0.034196634765596375 -0.019482911363473916 -0.011588732263400138 -0.024398737627001087 -0.016828708827930874 -0.01551261984979222
          -0.011849099310057095 -0.0197631303232979 -0.020576337349149907 -0.017129985060610253 -0.024726863812555844 -0.01577012055975398
          -0.02088293931999846 -0.012136553758143508 -0.004480628412274721 -0.015424536005577773 -0.007495178592247454 -0.008309984454860997
          -0.004636670857507291 -0.012309322501675993 -0.01144955579810511 -0.007699751570299667 -0.01565246516586357 -0.00844666346146097
          -0.011650991262804358 -0.007673877333757903 -0.0011624609433411065 -0.009588578134964346 -0.002410178432909485 -0.004449674506702244
          -0.0012136492400094529 -0.007735862222816896 -0.006015075398471694 -0.0025099909823169237 -0.009705136538051344 -0.00449701854570754
          -0.0060965534356319465 -0.0063211987478796585 -0.0005596547184951183 -0.003474862991729528 -0.0005694758114980281 -0.006335297442104373
          -0.0034820592060130417 0.010559562876943936 0.010559562876940792 0.004715137286916184 0.004715137286913194 0.01055257609224916
          0.010125493145162786 0.010125493145159929 0.004684070671194317 0.004854174417342201 0.004854174417339501 0.010128050678035795
          0.004827399491354746 0.008455886842684193 0.008455886842680305 0.001888189462472338 0.0018881894624686168 0.008429299513327507
          0.010085235574267005 0.01008523557426354 0.0018653150149346874 0.003795666304109524 0.0037956663041061943 0.010066744417255089
          0.00377779512758992 0.0009706004681122127 0.0009706004681074893 -0.005547852180794634 -0.005547852180799236 0.0009246829511918659
          0.005495924530197398 0.005495924530193122 -0.005591123071700201 -0.0011811918593046195 -0.0011811918593087588 0.005457965994870507
          -0.0012165304342307965 -0.01323657534030562 -0.013236575340311304 -0.018615974073684746 -0.01861597407369034 -0.013298833947078627
          -0.005220541024900922 -0.005220541024906111 -0.01866932351280585 -0.011339305333871941 -0.011339305333877009 -0.005276893235131441
          -0.011383259863615753 -0.03473739634934704 -0.03473739634935381 -0.03770376818805736 -0.03770376818806408 -0.0348106695046275
          -0.0230597010173907 -0.023059701017396905 -0.037757755581043266 -0.0274199989480127 -0.027419998948018845 -0.023130189020621368
          -0.02747661429956354 -0.048107238588847974 -0.048107238588855294 -0.04941008406672521 -0.04941008406673251 -0.04818437073163504
          -0.04945570827822818
        </DataArray>
      </PointData>
      <CellData>
        <DataArray type="Int32" Name="libmesh_elem_id" format="ascii" RangeMin="0" RangeMax="131">
          0 1 2 3 4 5
          6 7 8 9 10 11
          12 13 14 15 16 17
          18 19 20 21 22 23
          24 25 26 27 28 29
          30 31 32 33 34 35
          36 37 38 39 40 41
          42 43 44 45 46 47
          48 49 50 51 52 53
          54 55 56 57 58 59
          60 61 62 63 64 65
          66 67 68 69 70 71
          72 73 74 75 76 77
          78 79 80 81 82 83
          84 85 86 87 88 89
          90 91 92 93 94 95
          96 97 98 99 100 101
          102 103 104 105 106 107
          108 109 110 111 112 113
          114 115 116 117 118 119
          120 121 122 123 124 125
          126 127 128 129 130 131
        </DataArray>
        <DataArray type="Int32" Name="subdomain_id" format="ascii" RangeMin="0" RangeMax="0">
          0 0 0 0 0 0
          0 0 0 0 0 0
          0 0 0 0 0 0
          0 0 0 0 0 0
          0 0 0 0 0 0
          0 0 0 0 0 0
          0 0 0 0 0 0
          0 0 0 0 0 0
          0 0 0 0 0 0
          0 0 0 0 0 0
          0 0 0 0 0 0
          0 0 0 0 0 0
          0 0 0 0 0 0
          0 0 0 0 0 0
          0 0 0 0 0 0
          0 0 0 0 0 0
          0 0 0 0 0 0
          0 0 0 0 0 0
          0 0 0 0 0 0
          0 0 0 0 0 0
          0 0 0 0 0 0
          0 0 0 0 0 0
        </DataArray>
        <DataArray type="Int32" Name="processor_id" format="ascii" RangeMin="0" RangeMax="0">
          0 0 0 0 0 0
          0 0 0 0 0 0
          0 0 0 0 0 0
          0 0 0 0 0 0
          0 0 0 0 0 0
          0 0 0 0 0 0
          0 0 0 0 0 0
          0 0 0 0 0 0
          0 0 0 0 0 0
          0 0 0 0 0 0
          0 0 0 0 0 0
          0 0 0 0 0 0
          0 0 0 0 0 0
          0 0 0 0 0 0
          0 0 0 0 0 0
          0 0 0 0 0 0
          0 0 0 0 0 0
          0 0 0 0 0 0
          0 0 0 0 0 0
          0 0 0 0 0 0
          0 0 0 0 0 0
          0 0 0 0 0 0
        </DataArray>
      </CellData>
      <Points>
        <DataArray type="Float64" Name="Points" NumberOfComponents="3" format="ascii" RangeMin="1.1170004230636236e-7" RangeMax="5.75032731995086">
          0.20000000000000007 0.3352878167131501 -3.2416339715058946 0.2 1.011446486028521 -3.422762276797539
          -0.2 1.011446486028521 -3.422762276797539 -0.2 0.33528781671315 -3.2416339715058946
          0.20000000000000004 0.40000435497920644 -2.7498669697588327 0.2 1.1000059594452298 -2.74981795861735
          -0.20000000000000004 1.1000059594452298 -2.74981795861735 -0.2 0.40000435497920644 -2.7498669697588327
          0.2 0.665316989447275 -3.3309739655346284 3.478822364186345e-17 1.0114464860285213 -3.4227622767975374
          -0.2 0.665316989447275 -3.3309739655346284 1.8724035588201934e-17 0.32690509618127866 -3.240733059267555
          0.20000000000000004 0.40003212527480325 -2.999884809163799 0.2 1.1000439609023624 -3.091947633592566
          -0.2 1.1000439609023624 -3.091947633592566 -0.2 0.4000321252748031 -2.999884809163799
          0.19999999999999996 0.7499999999999998 -2.75 4.592716591420719e-17 1.1 -2.75
          -0.2 0.7500000000000006 -2.75 9.090158532232512e-18 0.4046844728253146 -2.750489358763697
          -2.111538240460719e-17 0.665943621794898 -3.331706624102173 0.19999999999999998 0.7401091150685059 -3.046024179994343
          4.8132368722618543e-17 1.100043960902362 -3.0919476335925653 -0.19999999999999998 0.740109115068506 -3.0460241799943417
          4.047980570732427e-17 0.3854844863075691 -3.000321737039887 4.0114070223633396e-17 0.7562976575232961 -2.7493405416926664
          -4.830326062933761e-17 0.7366291560247652 -3.047464448046892 0.2000000000000001 0.14547184342332317 -3.700013611744406
          0.20000000000000004 0.7516983120529686 -4.050018626597609 -0.20000000000000004 0.7516983120529686 -4.050018626597609
          -0.20000000000000004 0.14547184342332317 -3.700013611744406 0.2 0.44284963095512775 -3.8717047574269072
          2.635742740607692e-17 0.7516983120529686 -4.050018626597608 -0.2 0.44284963095512775 -3.8717047574269077
          -8.23494587422298e-18 0.14216331608090643 -3.6975003081247664 0.2000000000000001 0.27054350815149697 -3.48338313384799
          0.20000000000000004 0.9228490111546797 -3.7535769200025126 -0.20000000000000004 0.9228490111546797 -3.7535769200025126
          -0.20000000000000004 0.27054350815149697 -3.48338313384799 2.3660471291636356e-17 0.4459134440285498 -3.8727048167607654
          0.2 0.5905248638260442 -3.615923751074914 2.1444078561108358e-17 0.9228490111546804 -3.75357692000251
          -0.2 0.5905248638260442 -3.6159237510749147 -3.0317345309204054e-18 0.26832570605498823 -3.4811443814952225
          6.0724958201232256e-18 0.5952580875650308 -3.615948800157454 0.2000000000000001 -0.15647786583201423 -4.093522134167986
          0.20000000000000004 0.338503973071981 -4.588503973071983 -0.20000000000000004 0.338503973071981 -4.588503973071983
          -0.20000000000000004 -0.15647786583201423 -4.093522134167986 0.2 0.08633008093155611 -4.336330080931557
          3.1639802939211146e-17 0.33850397307198077 -4.588503973071981 -0.2 0.08633008093155617 -4.336330080931557
          1.0204352954169538e-17 -0.16006232094034784 -4.089912895378595 0.2000000000000001 0.02040017869514938 -3.916644089640822
          0.20000000000000004 0.5805476129512575 -4.346460333192706 -0.20000000000000004 0.5805476129512575 -4.346460333192706
          -0.20000000000000004 0.02040017869514938 -3.916644089640822 4.022944279975527e-17 0.0879381337105458 -4.337864782588477
          0.2 0.29517439808421136 -4.127485763778901 3.127077625104548e-17 0.5805476129512568 -4.346460333192706
          -0.2 0.2951743980842113 -4.127485763778901 -1.3438157217525554e-17 0.016000926106824652 -3.9138562347543107
          4.124844676314949e-17 0.29656880049206885 -4.129460833364076 0.2000000000000001 -0.5499863882555948 -4.395471843423325
          0.20000000000000004 -0.19998137340239247 -5.00169831205297 -0.20000000000000004 -0.1999813734023927 -5.00169831205297
          -0.20000000000000004 -0.5499863882555948 -4.395471843423325 0.2 -0.3782952425730918 -4.692849630955127
          3.088525594566057e-17 -0.1999813734023923 -5.0016983120529686 -0.2 -0.37829524257309194 -4.692849630955127
          2.7233253099606463e-17 -0.5525253384711286 -4.3922229019659556 0.2000000000000001 -0.33335591035917783 -4.270400178695151
          0.20000000000000004 0.0964603331927045 -4.83054761295126 -0.20000000000000004 0.09646033319270447 -4.83054761295126
          -0.20000000000000004 -0.33335591035917783 -4.270400178695151 1.8640925252377255e-17 -0.3773054654097235 -4.696114160115913
          0.2 -0.12251423622109915 -4.545174398084212 3.200882962737681e-17 0.0964603331927048 -4.830547612951256
          -0.2 -0.12251423622109898 -4.545174398084212 3.384686312586463e-17 -0.3361255679875203 -4.265969556002879
          3.9210438836361054e-17 -0.12069253307097724 -4.546268731812877 0.2000000000000001 -1.0083660284941067 -4.585287816713153
          0.20000000000000004 -0.8272377232024614 -5.261446486028523 -0.20000000000000004 -0.8272377232024616 -5.261446486028523
          -0.20000000000000004 -1.0083660284941067 -4.585287816713153 0.2 -0.9190260344653706 -4.915316989447275
          3.950056552552994e-17 -0.8272377232024617 -5.261446486028522 -0.2 -0.9190260344653707 -4.915316989447275
          5.1206757582084246e-17 -1.009211439586636 -4.5769393636496325 0.2000000000000001 -0.7666168661520117 -4.520543508151499
          0.20000000000000004 -0.4964230799974894 -5.172849011154681 -0.20000000000000004 -0.49642307999748986 -5.172849011154681
          -0.20000000000000004 -0.7666168661520117 -4.520543508151499 -4.0581168801757124e-17 -0.9183467322906418 -4.915320785420898
          0.2 -0.6340762489250844 -4.840524863826042 2.976168226394433e-17 -0.4964230799974894 -5.172849011154681
          -0.2 -0.6340762489250849 -4.840524863826042 2.0619643073348293e-17 -0.7689251089547369 -4.518476247929032
          -1.928588331606541e-18 -0.6339183977484697 -4.845959588418949 0.2000000000000001 -1.5 -4.650008709958415
          0.20000000000000004 -1.4999999999999998 -5.35001191889046 -0.20000000000000004 -1.5 -5.35001191889046
          -0.20000000000000004 -1.5 -4.650008709958415 0.19999999999999996 -1.4999999999999993 -4.999999999999998
          0 -1.5 -5.35 -0.2 -1.4999999999999993 -4.999999999999998
          9.452938694257869e-17 -1.500000000000005 -4.659327921130659 0.2000000000000001 -1.2501151908362018 -4.650032125274807
          0.20000000000000004 -1.1580523664074334 -5.350043960902364 -0.20000000000000004 -1.1580523664074334 -5.350043960902364
          -0.20000000000000004 -1.2501151908362018 -4.650032125274807 1.6093895785790972e-16 -1.4999999999999696 -5.0118530887980715
          0.2 -1.2039758200056567 -4.990109115068509 4.923944878711555e-17 -1.158052366407434 -5.3500439609023624
          -0.2 -1.2039758200056565 -4.990109115068509 8.17938720908202e-17 -1.2494977702185353 -4.635402479370234
          -7.923374927190771e-17 -1.2027750668328139 -4.984681982422847 0.19999996843375487 0.39999995980715575 0.5000000401497012
          0.2 -1.1102230246251564e-16 0.4999999255333053 -0.2 0 0.49999992553330497
          -0.19999996843375492 0.39999995980715575 0.5000000401497011 0.2 0.4 -3.7233347419125496e-8
          0.2 -5.229645328090119e-17 -1.1170004228879839e-7 -0.2 2.893228155320964e-17 -1.1170004230267618e-7
          -0.2 0.4 -3.7233347419125496e-8 0.199999980167842 0.1999999743195871 0.49999979488330903
          3.0850632394568526e-17 -1.0785207688568521e-32 0.4999999255333049 -0.19999998016784198 0.1999999743195871 0.4999997948833088
          2.3126486658526186e-18 0.39999982921760474 0.4999997772386248 0.19999997381759826 0.3999999987058972 0.2500002023249866
          0.19999999999999996 -1.1102230246251563e-16 0.24999990691663126 -0.19999999999999996 0 0.24999990691663135
          -0.19999997381759838 0.39999999870589714 0.25000020232498676 0.20000000447254107 0.1999992381265595 8.460014829149927e-7
          2.775557561562891e-17 3.214697950356626e-17 -1.1170004230636236e-7 -0.20000000447254102 0.1999992381265596 8.460014828650549e-7
          -6.5829943023713535e-18 0.4000002193806203 0.000001037835056552283 -2.813028035403391e-17 0.20000010816621344 0.5000001346956637
          0.1999999813554903 0.19999964595056927 0.24999958034806508 5.652931863653857e-17 -1.232595164407831e-32 0.24999990691663154
          -0.19999998135549024 0.19999964595056924 0.2499995803480653 7.594759020474983e-17 0.39999915484828175 0.24999958687034737
          1.8029898256148335e-17 0.19999912130990102 -0.000001207919053327949 -5.976795177905762e-17 0.2000012644183004 0.2500003634882517
          0.1999999666181212 0.3999999627664149 0.9999999313245702 0.20000000000000004 -1.1102230246251565e-16 0.9999999627666528
          -0.20000000000000004 0 0.9999999627666525 -0.19999996661812125 0.39999996276641486 0.9999999313245702
          0.1999999814844506 0.2000000490226395 0.9999999969408142 -2.3463164435994793e-17 -7.703719777548943e-33 0.9999999627666525
          -0.19999998148445053 0.20000004902263946 0.9999999969408138 2.0265161163653106e-17 0.40000012868641843 0.9999999972072975
          0.19999996304991147 0.39999992090841435 0.7499998779744159 0.20000000000000007 -1.1102230246251565e-16 0.7499999441499794
          -0.20000000000000007 0 0.7499999441499786 -0.19999996304991147 0.3999999209084143 0.7499998779744156
          -2.8826681098087034e-18 0.19999982496625146 0.9999999004014504 0.19999997898019373 0.20000030268860491 0.7500000094185529
          5.171946152598485e-18 -9.244463733058732e-33 0.7499999441499783 -0.19999997898019375 0.20000030268860494 0.7500000094185524
          -7.132229287304459e-17 0.40000050358692774 0.7499999676069022 3.507391070989801e-18 0.19999895191412645 0.7499999059030757
          0.20000000000000004 0.4000000000000001 1.5 0.20000000000000004 -1.0663089857457853e-17 1.5
          -0.19999999999999996 4.2810069361024065e-17 1.5 -0.20000000000000004 0.4000000000000001 1.5
          0.2 0.20000000000000012 1.5 7.36827415298361e-17 3.214697950356623e-17 1.5
          -0.2 0.2000000000000001 1.5 2.990247686101082e-17 0.4 1.5
          0.1999999701863309 0.40000000462441554 1.2499999846747245 0.2 -1.1102230246251568e-16 1.2499999813833262
          -0.2 0 1.2499999813833265 -0.199999970186331 0.40000000462441543 1.2499999846747247
          4.5927165914207175e-17 0.1999999999999999 1.5 0.1999999839887075 0.19999979535667406 1.2499999844630754
          -5.209827502458807e-17 -6.162975822039155e-33 1.2499999813833267 -0.1999999839887073 0.199999795356674 1.2499999844630751
          1.118526152003508e-16 0.3999997537859092 1.2500000268076927 -9.272727290607208e-18 0.20000069801837647 1.249999894899825
          0.49999999999999994 0.4 0.4999999999999999 0.49999999999999994 -5.551115123125782e-17 0.4999999255333053
          0.5 0.4000000000000001 -4.46800169029506e-8 0.5 -1.5679917832262845e-17 -1.1170004230267618e-7
          0.49999999999999994 0.19999999999999996 0.49999995869425523 0.34999999999999987 -4.5005771304992745e-17 0.49999992553330513
          0.3500000467591282 0.3999999460073612 0.4999998713600966 0.4999999999999999 0.4 0.24999999999999978
          0.4999999999999999 -5.5511151231257815e-17 0.24999990691663126 0.5 0.1999999999999998 -1.1170004228186942e-7
          0.3499999999999999 -1.2858791801426465e-17 -1.1170004230636236e-7 0.34999999999999987 0.4000000000000001 -1.1170004225737649e-7
          0.350000035729089 0.20000036549958689 0.5000000495062575 0.4999999999999999 0.1999999999999998 0.2499999429864367
          0.3499999999999999 -4.500577130499275e-17 0.2499999069166313 0.35000004136361385 0.39999973297386826 0.249999701611806
          0.35000000443178914 0.19999648316885962 -7.00818490429576e-7 0.350000024852093 0.20000143607098897 0.25000025399233733
          0.5 0.4000000000000001 1.0000000000000002 0.5 -5.551115123125783e-17 0.9999999627666528
          0.5 0.2000000000000001 0.9999999825468686 0.3499999999999999 -4.5005771304992745e-17 0.9999999627666527
          0.3500000470659924 0.40000002016833414 1.0000000019445987 0.5 0.4000000000000001 0.75
          0.5 -5.551115123125783e-17 0.7499999441499794 0.350000035574496 0.1999998537689141 0.9999999405403543
          0.5 0.2000000000000001 0.7499999744020738 0.34999999999999987 -4.500577130499274e-17 0.749999944149979
          0.3500000521546426 0.4000001590408542 0.7500000411083871 0.35000004660608497 0.19999929492818483 0.7499998450201777
          0.5000000000000001 0.4000000000000001 1.5 0.5000000000000001 -5.724973770684034e-17 1.5
          0.5 0.20000000000000004 1.5 0.3499999999999999 -1.285879180142649e-17 1.5
          0.3499999999999999 0.4 1.5 0.5000000000000001 0.4000000000000001 1.2500000000000004
          0.5000000000000001 -5.551115123125783e-17 1.2499999813833262 0.3499999999999999 0.20000000000000004 1.5
          0.5000000000000001 0.2000000000000001 1.2499999906916635 0.35 -4.500577130499275e-17 1.2499999813833265
          0.3500000419773422 0.3999998812958141 1.2499999627808103 0.350000024542907 0.2000004126096434 1.250000036060531
          -0.5000000000000001 7.208201624969636e-17 1.5 -0.5000000000000002 0.4000000000000001 1.5
          -0.5 6.429395900713255e-17 0.9999999627666527 -0.5000000000000003 0.4 1.0000000000000002
          -0.5000000000000002 0.20000000000000004 1.5 -0.3500000000000001 0.4 1.5
          -0.3499999999999999 7.715275080855901e-17 1.5 -0.5000000000000001 6.429395900713255e-17 1.2499999813833262
          -0.5000000000000003 0.4 1.2500000000000002 -0.5000000000000002 0.20000000000000007 0.999999982546869
          -0.3500000470659925 0.40000002016833414 1.0000000019445987 -0.34999999999999987 4.5005771304992764e-17 0.9999999627666525
          -0.35000000000000014 0.2 1.5 -0.5000000000000003 0.20000000000000004 1.2499999906916641
          -0.3500000419773423 0.3999998812958143 1.2499999627808103 -0.3499999999999999 4.5005771304992776e-17 1.2499999813833267
          -0.3500000355744963 0.19999985376891405 0.9999999405403542 -0.3500000245429077 0.2000004126096433 1.250000036060529
          -0.49999999999999994 6.429395900713252e-17 0.4999999255333053 -0.5000000000000002 0.4 0.49999999999999994
          -0.5 6.429395900713254e-17 0.7499999441499793 -0.5000000000000003 0.4000000000000001 0.7500000000000001
          -0.5000000000000002 0.19999999999999996 0.49999995869425523 -0.35000004675912844 0.3999999460073612 0.4999998713600966
          -0.34999999999999987 4.5005771304992764e-17 0.4999999255333049 -0.5000000000000001 0.20000000000000007 0.7499999744020738
          -0.3500000521546427 0.400000159040854 0.7500000411083871 -0.34999999999999976 4.500577130499276e-17 0.7499999441499783
          -0.35000003572908917 0.20000036549958677 0.500000049506258 -0.3500000466060849 0.1999992949281848 0.7499998450201795
          -0.5 7.013500193905541e-17 -1.1170004230267618e-7 -0.5000000000000002 0.4000000000000001 -4.46800169029506e-8
          -0.4999999999999999 6.429395900713252e-17 0.24999990691663132 -0.5000000000000002 0.3999999999999999 0.24999999999999978
          -0.5000000000000002 0.19999999999999984 -1.1170004228186942e-7 -0.3500000000000001 0.4000000000000001 -1.1170004225737649e-7
          -0.34999999999999976 7.7152750808559e-17 -1.1170004230636236e-7 -0.5000000000000002 0.19999999999999984 0.24999994298643669
          -0.3500000413636141 0.3999997329738685 0.249999701611806 -0.35 4.5005771304992776e-17 0.24999990691663154
          -0.35000000443178975 0.19999648316885957 -7.008184904667992e-7 -0.3500000248520934 0.20000143607098872 0.2500002539923364
          0.2 1.1000000000000003 0.5 -0.2 1.1000000000000003 0.5
          0.2 1.1 -2.2340008434330245e-8 -0.20000000000000004 1.1 -2.2340008434330245e-8
          0.19999994970366705 0.7499998375884691 0.4999998197211726 -0.19999994970366708 0.7499998375884687 0.49999981972117263
          2.221537430465614e-17 1.0999999999999999 0.4999999918552053 0.2 1.0999999999999999 0.24999999999999983
          -0.19999999999999996 1.0999999999999999 0.24999999999999986 0.2 0.75 0
          -0.2 0.7499999999999999 0 5.551115123125783e-17 1.1 -1.1170004217165121e-7
          -7.28176177434066e-21 0.7500004147445387 0.5000001621383791 0.19999995272858548 0.7499994762593761 0.2499995856757399
          -0.19999995272858548 0.7499994762593757 0.24999958567573943 2.792850922403182e-17 1.0999999999999999 0.24999997905624222
          1.099480007810846e-16 0.7499957620916031 -6.988243394453725e-7 -1.0874236634900477e-17 0.7500018658971439 0.2500003512800742
          0.20000000000000004 1.1000000000000005 1.0000000000000002 -0.2 1.1000000000000005 1.0000000000000002
          0.1999999517314127 0.750000080786996 1.0000000165592862 -0.19999995173141266 0.7500000807869958 1.0000000165592864
          3.335226280719209e-17 1.0999999999999999 1.0000000023270843 0.20000000000000004 1.1000000000000008 0.7500000000000001
          -0.20000000000000004 1.1000000000000008 0.7500000000000002 -1.281570585795968e-16 0.7499997083537694 0.9999999273894429
          0.19999994667874862 0.750000198917562 0.7500000537666053 -0.19999994667874868 0.7500001989175618 0.7500000537666058
          1.650223938528046e-17 1.0999999999999999 0.7500000046541683 1.0859673111351795e-17 0.7499989635919335 0.7499999729966839
          0.20000000000000004 1.1 1.5 -0.20000000000000004 1.1 1.5
          0.2 0.75 1.5 -0.2 0.7499999999999999 1.5
          5.551115123125783e-17 1.1 1.5 0.20000000000000004 1.1 1.2500000000000002
          -0.2 1.1 1.2500000000000002 5.551115123125783e-17 0.75 1.5
          0.19999995678407675 0.7499999626564301 1.2499999793519672 -0.19999995678407662 0.7499999626564298 1.249999979351967
          5.0202286229103724e-17 1.0999999999999999 1.2500000000000002 -2.671737902705454e-16 0.7500004531156053 1.2499998817822018
          0.49999999999999994 1.1000000000000003 0.5 0.4999999999999999 1.1 0
          0.5000000000000001 0.7499999999999999 0.5 0.3499999999999999 1.1 0.49999999999999983
          0.4999999999999999 1.0999999999999999 0.24999999999999983 0.5 0.75 0
          0.35000000000000014 1.1 0 0.35000007479376105 0.7500000200822441 0.5000001222748549
          0.49999999999999994 0.7499999999999999 0.25000000000000006 0.3500000000000001 1.0999999999999996 0.2499999999999998
          0.34999999999999976 0.75 0 0.35000006704319264 0.7500003397086465 0.2500003335739375
          0.5 1.1000000000000005 1.0000000000000002 0.5000000000000001 0.75 1.0000000000000002
          0.35000000000000003 1.1 1.0000000000000002 0.5 1.1000000000000008 0.7500000000000001
          0.35000007205071937 0.7499999373439653 0.9999999580490997 0.5000000000000002 0.7499999999999999 0.7499999999999999
          0.34999999999999976 1.1000000000000003 0.7499999999999999 0.3500000825443294 0.7499997004558415 0.7499999109757723
          0.5 1.1 1.5 0.5 0.75 1.5
          0.35000000000000014 1.1 1.5 0.5000000000000001 1.1 1.2500000000000002
          0.34999999999999976 0.75 1.5 0.5 0.7500000000000001 1.2500000000000004
          0.3500000000000003 1.1 1.2500000000000004 0.35000006155710933 0.7500001742320891 1.2500000051224271
          -0.5000000000000004 1.1 1.5 -0.5000000000000006 1.1000000000000005 1.0000000000000002
          -0.5000000000000003 0.7499999999999999 1.5 -0.3500000000000002 1.1 1.5
          -0.5000000000000006 1.1 1.2500000000000002 -0.5000000000000002 0.75 1
          -0.35000000000000014 1.1000000000000003 1.0000000000000002 -0.3500000000000004 0.75 1.5
          -0.5000000000000003 0.7500000000000003 1.2500000000000004 -0.3500000000000002 1.1000000000000003 1.2500000000000002
          -0.3500000720507198 0.7499999373439654 0.9999999580490998 -0.3500000615571103 0.7500001742320891 1.2500000051224278
          -0.5000000000000004 1.1000000000000003 0.5 -0.5000000000000006 1.1000000000000008 0.7500000000000002
          -0.5000000000000002 0.7499999999999998 0.4999999999999999 -0.3500000000000002 1.1 0.5
          -0.5000000000000002 0.7499999999999998 0.7499999999999997 -0.3500000000000001 1.1000000000000003 0.7500000000000001
          -0.3500000747937613 0.7500000200822445 0.5000001222748549 -0.3500000825443294 0.7499997004558417 0.7499999109757718
          -0.5000000000000004 1.1 0 -0.5000000000000004 1.0999999999999999 0.24999999999999986
          -0.5000000000000003 0.7499999999999999 0 -0.35000000000000037 1.1 0
          -0.5000000000000003 0.7499999999999999 0.2500000000000001 -0.35000000000000026 1.0999999999999996 0.24999999999999983
          -0.3500000000000004 0.75 0 -0.35000006704319314 0.7500003397086474 0.2500003335739381
          0.2 -3.399999999999999 -1.1170004271779652e-7 0.1999999683719469 -3.399999959788947 0.4999999906164294
          -0.19999996837194695 -3.399999959788948 0.49999999061642963 -0.2 -3.3999999999999995 -1.1170004271779652e-7
          0.20000000000000004 -4.1 -1.117000427208122e-7 0.2 -4.1000000000000005 0.4999998882999581
          -0.2 -4.1000000000000005 0.49999988829995856 -0.20000000000000004 -4.1 -1.1170004265974993e-7
          0.19999997364585825 -3.3999999987113885 0.2500001502255765 8.987251378783494e-18 -3.399999828960164 0.49999972704199197
          -0.1999999736458583 -3.3999999987113902 0.25000015022557637 2.830714145704992e-18 -3.400000219386674 9.45105084080177e-7
          0.2 -3.7499999999999987 -1.1170004276560491e-7 0.1999999497421428 -3.7499998371192698 0.4999997457797908
          -0.1999999497421428 -3.7499998371192684 0.49999974577979106 -0.2 -3.750000000000001 -1.1170004276560494e-7
          0.2 -4.1000000000000005 0.24999988829995798 2.0324664542265316e-17 -4.1 0.49999988829995823
          -0.2 -4.1000000000000005 0.24999988829995798 2.990247686101082e-17 -4.1 -1.117000426437003e-7
          5.767292521147912e-17 -3.3999991540737637 0.24999953039559095 0.19999995282946822 -3.749999475077787 0.24999952090296043
          -3.46993034390034e-17 -3.7500004158865066 0.5000000873508588 -0.19999995282946825 -3.7499994750777854 0.2499995209029611
          1.3687186167677467e-17 -3.749995761865437 -9.314554634287873e-7 3.1807468838480684e-17 -4.1000000000000005 0.2499998882999576
          -1.1634692767076217e-16 -3.7500018701731066 0.2500002843262311 0.1999999666334207 -3.3999999627508783 0.999999861700847
          -0.1999999666334208 -3.3999999627508775 0.9999998617008472 0.2 -4.1000000000000005 0.9999998882999586
          -0.2 -4.1000000000000005 0.999999888299959 0.19999996309803553 -3.3999999208665064 0.7499998310072823
          1.9710639431210665e-18 -3.400000128723417 0.9999999282240164 -0.1999999630980356 -3.3999999208665055 0.7499998310072828
          0.19999995173264942 -3.7500000808267453 0.999999925125528 -0.19999995173264945 -3.750000080826745 0.9999999251255283
          0.20000000000000004 -4.1000000000000005 0.7499998882999582 3.1531714329396355e-17 -4.099999999999998 0.999999888299959
          -0.20000000000000004 -4.1000000000000005 0.7499998882999591 -3.9698422453912136e-17 -3.4000005038465644 0.749999923688393
          0.19999994665481738 -3.750000199160752 0.7499999706566212 3.359523357574582e-17 -3.7499997079746343 0.9999998363022451
          -0.19999994665481735 -3.7500001991607514 0.749999970656621 8.841860246049944e-18 -4.099999999999998 0.7499998882999589
          4.6948320792755374e-17 -3.7499989615999065 0.7499998903754863 0.20000000000000004 -3.4 1.49999988829996
          -0.20000000000000004 -3.400000000000001 1.49999988829996 0.2 -4.1 1.4999998882999597
          -0.20000000000000004 -4.1 1.4999998882999597 0.19999997016880589 -3.4000000046352508 1.2499998923944116
          1.3877787807814457e-17 -3.400000000000001 1.4999998882999597 -0.19999997016880597 -3.4000000046352494 1.2499998923944116
          0.2 -3.75 1.49999988829996 -0.2 -3.75 1.49999988829996
          0.19999999999999996 -4.1000000000000005 1.249999888299959 4.592716591420719e-17 -4.1 1.4999998882999597
          -0.19999999999999996 -4.1000000000000005 1.249999888299959 4.364055034015427e-17 -3.39999975360027 1.2499999327596398
          0.19999995681048147 -3.7499999624927387 1.249999879594435 0 -3.7499999999999987 1.4999998882999597
          -0.19999995681048155 -3.7499999624927383 1.2499998795944356 5.422156841274276e-17 -4.099999999999999 1.249999888299959
          2.024214635873627e-17 -3.7500004543493617 1.2499997822290039 0.5000000000000001 -3.4 -1.1170004272939334e-7
          0.5 -3.3999999999999995 0.4999998882999583 0.5000000000000001 -4.1 -1.1170004272059011e-7
          0.5 -4.1000000000000005 0.49999988829995845 0.5000000000000001 -3.3999999999999995 0.2499998882999579
          0.350000046603257 -3.399999945952387 0.49999977358033215 0.3499999999999999 -3.3999999999999995 -1.1170004277083477e-7
          0.5 -3.750000000000001 -1.1170004276560494e-7 0.5 -3.75 0.49999988829995823
          0.5000000000000001 -4.1000000000000005 0.24999988829995795 0.34999999999999987 -4.1 0.499999888299958
          0.3499999999999999 -4.1 -1.1170004258246796e-7 0.35000004098001725 -3.3999997328438147 0.24999956217891262
          0.5000000000000001 -3.7500000000000018 0.24999988829995784 0.35000007484101425 -3.7500000207365565 0.500000041498385
          0.3499999999999998 -3.7500000000000027 -1.1170004276560494e-7 0.3499999999999999 -4.1 0.24999988829995803
          0.3500000671943241 -3.7500003420461363 0.2500002845513288 0.49999999999999994 -3.3999999999999995 0.9999998882999586
          0.49999999999999994 -4.1000000000000005 0.9999998882999592 0.5 -3.4 0.7499998882999587
          0.350000047076218 -3.4000000201662317 0.9999999167942837 0.5 -3.749999999999999 0.9999998882999586
          0.5 -4.1000000000000005 0.7499998882999589 0.34999999999999987 -4.099999999999998 0.9999998882999586
          0.35000005222649677 -3.4000001590609585 0.7499999849817517 0.5 -3.7499999999999982 0.7499998882999586
          0.35000007202521 -3.7499999371096573 0.9999998529147596 0.34999999999999987 -4.1 0.749999888299958
          0.3500000824877044 -3.749999699426976 0.7499997984454411 0.5 -3.4 1.49999988829996
          0.4999999999999999 -4.1 1.4999998882999597 0.4999999999999999 -3.3999999999999995 1.2499998882999583
          0.34999999999999987 -3.4 1.4999998882999597 0.5 -3.750000000000001 1.49999988829996
          0.4999999999999999 -4.1000000000000005 1.2499998882999597 0.35000000000000014 -4.1 1.4999998882999597
          0.3500000419259392 -3.3999998812715044 1.2499998486068156 0.49999999999999994 -3.7499999999999996 1.2499998882999586
          0.35000000000000014 -3.7500000000000004 1.4999998882999597 0.3499999999999998 -4.099999999999997 1.2499998882999592
          0.35000006156271557 -3.750000174792338 1.2499999073840782 -0.49999999999999856 -3.4 1.49999988829996
          -0.49999999999999856 -3.4000000000000004 0.9999998882999588 -0.49999999999999817 -4.1 1.4999998882999597
          -0.4999999999999982 -4.1000000000000005 0.9999998882999594 -0.49999999999999856 -3.4000000000000012 1.249999888299959
          -0.3500000470762172 -3.400000020166231 0.9999999167942837 -0.3499999999999993 -3.4 1.4999998882999597
          -0.4999999999999982 -3.75 1.49999988829996 -0.4999999999999982 -3.750000000000001 0.9999998882999587
          -0.49999999999999817 -4.1000000000000005 1.24999988829996 -0.3499999999999991 -4.099999999999998 0.999999888299959
          -0.34999999999999903 -4.1 1.4999998882999597 -0.3500000419259383 -3.399999881271503 1.2499998486068156
          -0.4999999999999982 -3.750000000000001 1.2499998882999583 -0.3500000720252092 -3.7499999371096564 0.9999998529147596
          -0.349999999999999 -3.7499999999999987 1.4999998882999597 -0.34999999999999903 -4.099999999999998 1.249999888299959
          -0.3500000615627146 -3.7500001747923424 1.2499999073840755 -0.49999999999999845 -3.4 0.4999998882999582
          -0.4999999999999982 -4.1000000000000005 0.49999988829995823 -0.49999999999999856 -3.4 0.7499998882999585
          -0.35000004660325623 -3.399999945952388 0.4999997735803322 -0.49999999999999833 -3.75 0.49999988829995834
          -0.4999999999999983 -4.1000000000000005 0.7499998882999589 -0.3499999999999991 -4.1 0.4999998882999583
          -0.35000005222649605 -3.4000001590609585 0.7499999849817517 -0.4999999999999983 -3.750000000000001 0.749999888299959
          -0.3500000748410136 -3.7500000207365547 0.5000000414983857 -0.3499999999999991 -4.099999999999998 0.749999888299959
          -0.35000008248770376 -3.749999699426971 0.7499997984454435 -0.4999999999999986 -3.3999999999999995 -1.1170004270718886e-7
          -0.4999999999999982 -4.1 -1.117000426095678e-7 -0.4999999999999984 -3.4 0.24999988829995787
          -0.3499999999999992 -3.3999999999999995 -1.1170004277083477e-7 -0.4999999999999982 -3.7499999999999996 -1.1170004276560494e-7
          -0.4999999999999982 -4.1000000000000005 0.24999988829995762 -0.34999999999999903 -4.1 -1.1170004258246796e-7
          -0.35000004098001647 -3.399999732843818 0.24999956217891267 -0.49999999999999833 -3.7499999999999987 0.24999988829995762
          -0.3499999999999989 -3.7499999999999987 -1.1170004276560492e-7 -0.34999999999999903 -4.1000000000000005 0.2499998882999576
          -0.35000006719432347 -3.750000342046138 0.250000284551328 0.2 -2.999999999999999 0.999999888299959
          -0.2 -3 0.9999998882999587 0.20000000000000004 -2.9999999999999996 1.4999998882999597
          -0.2 -2.9999999999999996 1.4999998882999597 0.19999998149571094 -3.2000000490289318 0.9999999250404397
          2.2834115858040874e-17 -3 0.9999998882999586 -0.1999999814957109 -3.2000000490289313 0.9999999250404397
          0.19999999999999996 -2.9999999999999987 1.249999888299959 -0.19999999999999996 -3 1.2499998882999586
          0.2 -3.1999999999999993 1.49999988829996 2.990247686101082e-17 -2.9999999999999996 1.4999998882999597
          -0.2 -3.1999999999999993 1.49999988829996 -1.7941361624332314e-17 -3.1999998249374575 0.9999998280621916
          0.1999999839632357 -3.1999997953235875 1.2499998915021384 6.11840701738772e-17 -3 1.2499998882999583
          -0.1999999839632357 -3.1999997953235866 1.249999891502138 4.592716591420719e-17 -3.2 1.4999998882999597
          -1.1625338694741297e-17 -3.200000698109561 1.2499998034318553 0.20000000000000004 -3 0.4999998882999584
          -0.20000000000000004 -3 0.49999988829995845 0.1999999800830627 -3.199999974264773 0.4999997531459758
          1.1197237014694281e-17 -3 0.49999988829995834 -0.19999998008306274 -3.199999974264772 0.49999975314597617
          0.20000000000000007 -3 0.7499998882999589 -0.20000000000000007 -2.9999999999999996 0.7499998882999588
          2.2429084722590222e-17 -3.200000108220538 0.5000000944276742 0.19999997902818617 -3.200000302734276 0.7499999585787408
          -1.5515838457795457e-17 -2.9999999999999996 0.7499998882999587 -0.19999997902818614 -3.2000003027342765 0.7499999585787415
          -2.4257384553923334e-17 -3.199998951765354 0.7499998526925278 0.2 -3 -1.1170004257644526e-7
          -0.2 -3 -1.1170004260420082e-7 0.2000000043574093 -3.1999992382706277 8.194334946934831e-7
          2.990247686101082e-17 -2.9999999999999996 -1.1170004257634473e-7 -0.20000000435740936 -3.1999992382706277 8.194334947456742e-7
          0.2 -3 0.24999988829995787 -0.2 -3 0.24999988829995815
          1.4893172277485526e-17 -3.199999121332922 -0.0000012754453761110665 0.19999998113793924 -3.1999996457952697 0.24999954771321078
          3.791031248718402e-17 -3 0.24999988829995798 -0.19999998113793932 -3.199999645795268 0.24999954771321087
          6.911555399910377e-17 -3.200001264675722 0.2500003361628207 0.49999999999999994 -3 0.999999888299959
          0.5 -2.9999999999999996 1.4999998882999597 0.49999999999999994 -3.1999999999999975 0.9999998882999592
          0.34999999999999987 -3 0.9999998882999587 0.4999999999999999 -3 1.2499998882999597
          0.5 -3.199999999999999 1.49999988829996 0.3499999999999999 -2.9999999999999996 1.4999998882999597
          0.3500000355263799 -3.1999998537727734 0.999999854026492 0.4999999999999999 -3.199999999999998 1.2499998882999594
          0.3499999999999999 -3 1.249999888299959 0.35 -3.1999999999999993 1.4999998882999597
          0.3500000247445099 -3.2000004126136155 1.2499999486779996 0.5 -3 0.4999998882999583
          0.5 -3.1999999999999984 0.49999988829995823 0.3499999999999999 -3 0.4999998882999582
          0.5 -2.9999999999999996 0.7499998882999585 0.35000003577230804 -3.200000365468724 0.5000000072113917
          0.5 -3.1999999999999975 0.749999888299959 0.34999999999999987 -2.9999999999999996 0.7499998882999583
          0.35000004630824993 -3.199999294931931 0.7499997593749846 0.5000000000000001 -3 -1.1170004262855375e-7
          0.5 -3.2000000000000006 -1.1170004269824935e-7 0.3499999999999999 -2.9999999999999996 -1.1170004257634473e-7
          0.5000000000000001 -3 0.24999988829995815 0.35000000445024476 -3.1999964836268724 -8.4913527719314e-7
          0.5000000000000001 -3.1999999999999993 0.2499998882999575 0.35 -3 0.24999988829995798
          0.35000002523636614 -3.2000014360055173 0.25000025504779877 -0.4999999999999987 -3 -1.1170004258692039e-7
          -0.4999999999999988 -3 0.4999998882999583 -0.49999999999999867 -3.2 -1.1170004269824935e-7
          -0.3499999999999992 -2.9999999999999996 -1.1170004257634473e-7 -0.49999999999999883 -3.000000000000001 0.2499998882999577
          -0.4999999999999988 -3.2 0.49999988829995806 -0.3499999999999993 -2.999999999999999 0.4999998882999581
          -0.3500000044502442 -3.1999964836268737 -8.491352772663305e-7 -0.49999999999999883 -3.2 0.2499998882999576
          -0.3499999999999994 -3.0000000000000004 0.24999988829995798 -0.3500000357723073 -3.2000003654687212 0.5000000072113918
          -0.3500000252363657 -3.2000014360055125 0.250000255047799 -0.49999999999999867 -2.9999999999999996 0.9999998882999592
          -0.4999999999999987 -2.999999999999999 0.7499998882999589 -0.49999999999999867 -3.1999999999999993 0.9999998882999588
          -0.3499999999999992 -2.999999999999999 0.9999998882999586 -0.49999999999999867 -3.1999999999999997 0.7499998882999586
          -0.3499999999999992 -2.9999999999999982 0.7499998882999582 -0.35000003552637937 -3.1999998537727756 0.9999998540264918
          -0.350000046308249 -3.1999992949319296 0.7499997593749846 -0.49999999999999867 -2.9999999999999996 1.4999998882999597
          -0.49999999999999867 -3 1.2499998882999597 -0.49999999999999867 -3.2000000000000006 1.49999988829996
          -0.3499999999999992 -2.9999999999999996 1.4999998882999597 -0.4999999999999986 -3.1999999999999993 1.249999888299959
          -0.34999999999999926 -3.0000000000000004 1.249999888299959 -0.34999999999999926 -3.2 1.4999998882999597
          -0.3500000247445097 -3.2000004126136217 1.249999948677999 -0.2 -0.05108856575277635 -3.138132082767811
          0.2 -0.05108856575277639 -3.138132082767811 -0.19999999999999996 0.000003438141478698969 -2.7498949761253946
          0.20000000000000004 0.0000034381414787131493 -2.7498949761253946 -0.2000376244243248 0.13631475970213003 -3.1896707323056024
          -2.841847722142895e-17 -0.05108856575277621 -3.138132082767811 0.20003762442432468 0.1363147597021301 -3.1896707323056024
          -0.19999999999999996 0.000025362059055041367 -2.9472774809187885 0.2 0.000025362059054930344 -2.9472774809187885
          -0.20000023354848376 0.20586672596300412 -2.7506075892552686 -8.326672684688674e-17 6.162975822039155e-33 -2.75
          0.20000023354848384 0.20586672596300423 -2.7506075892552695 1.9671162642638326e-17 0.14083027610191506 -3.1903992771541945
          -0.20003860903244747 0.18810770276368016 -2.9744225862561255 -4.179578984568651e-17 0.00002536205905568148 -2.9472774809187867
          0.20003860903244736 0.18810770276368033 -2.9744225862561247 -3.934637979484935e-17 0.20393536075447516 -2.7498959876150804
          -8.459625013437055e-18 0.1958311204588031 -2.9744200384192547 -0.20000000000000007 -0.20094328150790286 -3.5000107461140053
          0.20000000000000004 -0.20094328150790283 -3.5000107461140053 -0.20003457860480434 -0.02871349166887325 -3.5988431427541165
          -2.959657769009052e-17 -0.2009432815079029 -3.5000107461140053 0.20003457860480423 -0.02871349166887329 -3.598843142754117
          -0.20000000000000004 -0.10220249356460774 -3.328986684616834 0.20000000000000004 -0.10220249356460771 -3.328986684616834
          6.846124493266626e-17 -0.026615851193354204 -3.6003719815311452 -0.20003663981620212 0.08452181664057991 -3.4049188783550792
          -1.504116459717139e-17 -0.1022024935646081 -3.328986684616835 0.200036639816202 0.08452181664057988 -3.4049188783550797
          4.780195029871371e-17 0.08582943174502705 -3.406378515889134 -0.20000000000000007 -0.4393246309200112 -3.8106753690799895
          0.20000000000000004 -0.4393246309200112 -3.8106753690799895 -0.2000325056661849 -0.2995922932585627 -3.9503650207771495
          -4.2632731600683854e-17 -0.43932463092001084 -3.8106753690799886 0.2000325056661849 -0.2995922932585627 -3.9503650207771495
          -0.20000000000000007 -0.29968406945119797 -3.6710348076111767 0.20000000000000004 -0.29968406945119797 -3.6710348076111767
          5.851460615468339e-17 -0.2973733935692722 -3.9526158398742206 -0.20003251739340655 -0.1419487999783264 -3.792767407153154
          -4.415199078300966e-17 -0.2996840694511977 -3.671034807611176 0.20003251739340644 -0.14194879997832646 -3.7927674071531543
          8.912053956661881e-17 -0.13906113413173546 -3.7943654471731563 -0.20000000000000007 -0.749989253885996 -4.049056718492098
          0.20000000000000004 -0.749989253885996 -4.049056718492098 -0.20003453481427447 -0.6511917621756703 -4.221389906032704
          -3.974290668791945e-17 -0.7499892538859952 -4.049056718492096 0.20003453481427455 -0.6511917621756703 -4.221389906032705
          -0.20000000000000007 -0.5789651923888245 -3.9503159305488023 0.20000000000000004 -0.5789651923888245 -3.9503159305488023
          2.7973787551943893e-17 -0.6496192703105508 -4.223439691063026 -0.2000324939389633 -0.4572357865387989 -4.1079626344011455
          -4.111347241835805e-17 -0.578965192388824 -3.950315930548802 0.20003249393896338 -0.4572357865387989 -4.107962634401145
          2.790867274274797e-17 -0.45568565300680897 -4.110866232575285 -0.20000000000000004 -1.1118679172321897 -4.198911434247225
          0.20000000000000004 -1.1118679172321897 -4.198911434247225 -0.20003783576427314 -1.0602653401992166 -4.386220759711438
          -5.685514274410661e-17 -1.1118679172321893 -4.198911434247225 0.20003783576427336 -1.0602653401992164 -4.386220759711438
          -0.20000000000000007 -0.9210133153831676 -4.147797506435395 0.20000000000000004 -0.9210133153831676 -4.147797506435394
          5.469991834972394e-17 -1.059650221613523 -4.390869542199541 -0.20003657568958566 -0.8451477378125417 -4.334817177664263
          -3.837234095748085e-17 -0.9210133153831664 -4.147797506435391 0.20003657568958572 -0.8451477378125417 -4.334817177664265
          2.803890236113982e-17 -0.8435528876142925 -4.336013149550767 -0.20000000000000004 -1.5 -4.250006876282957
          0.20000000000000004 -1.5 -4.250006876282957 -0.2000004011448032 -1.4999999999999891 -4.461770828554695
          0 -1.5 -4.25 0.20000040114480339 -1.499999999999989 -4.461770828554695
          -0.2 -1.302722519081212 -4.250025362059055 0.20000000000000004 -1.302722519081212 -4.250025362059056
          -5.5466848661123003e-17 -1.4999999999999833 -4.457936392524685 -0.20003909583896062 -1.2753829425858914 -4.437624341758614
          -7.533794453073237e-17 -1.3027225190812122 -4.250025362059058 0.200039095838961 -1.2753829425858911 -4.437624341758613
          8.136093433830807e-17 -1.2757475556127538 -4.445725934848314 0.49999999999999994 -0.05108856575277639 -3.138132082767811
          0.49999999999999994 0.33528781671315006 -3.241633971505893 0.5000000000000001 0.0000034381414787376912 -2.7498949761253946
          0.5000000000000001 0.40000435497920644 -2.7498669697588327 0.3499999999999998 -0.05108856575277621 -3.138132082767811
          0.4999999999999999 0.13601728091571885 -3.1889581072928292 0.3499999999999998 0.3352878167131499 -3.241633971505892
          0.4999999999999999 0.000025362059054930344 -2.9472774809187885 0.4999999999999999 0.40003212527480325 -2.999884809163798
          0.3499999999999999 -4.500577130499274e-17 -2.75 0.5 0.19999999999999993 -2.75
          0.3499999999999999 0.4000000000000002 -2.75 0.3499825826578591 0.13825644394242106 -3.1900914098481703
          0.3499999999999998 0.00002536205905567801 -2.947277480918787 0.4999999999999999 0.19252688694064876 -2.973662713773502
          0.3499999999999998 0.4000321252748029 -2.9998848091637957 0.3500182424331297 0.20632736140266392 -2.7497020209588907
          0.3499677841390648 0.19090795368244368 -2.9748205681281576 0.5 -0.20094328150790283 -3.5000107461140053
          0.5 0.14547184342332303 -3.7000136117444056 0.34999999999999987 -0.20094328150790286 -3.500010746114005
          0.49999999999999994 -0.032069167722792453 -3.5975102611669953 0.34999999999999987 0.14547184342332348 -3.7000136117444047
          0.5 -0.10220249356460771 -3.328986684616834 0.5 0.27054350815149686 -3.483383133847988
          0.34999571537580637 -0.02757096694632874 -3.599536650934585 0.3499999999999998 -0.1022024935646081 -3.328986684616835
          0.49999999999999994 0.07950767489078896 -3.4042535008121564 0.3499999999999998 0.27054350815149686 -3.4833831338479886
          0.3499973811766534 0.08560493420239845 -3.4053622515681834 0.5 -0.4393246309200112 -3.8106753690799895
          0.5 -0.156477865832014 -4.093522134167987 0.34999999999999987 -0.43932463092001084 -3.810675369079988
          0.49999999999999994 -0.3014394944072687 -3.948560505592731 0.34999999999999987 -0.15647786583201392 -4.093522134167985
          0.5 -0.29968406945119797 -3.6710348076111767 0.5 0.020400178695149235 -3.9166440896408226
          0.3499936733407016 -0.2985766127395816 -3.951362076088569 0.34999999999999987 -0.29968406945119763 -3.6710348076111745
          0.49999999999999994 -0.14364601033637386 -3.7907670215218348 0.34999999999999987 0.02040017869515007 -3.9166440896408203
          0.34999404957495933 -0.14074686809505593 -3.793711050300986 0.5 -0.749989253885996 -4.049056718492098
          0.5 -0.5499863882555946 -4.395471843423325 0.34999999999999987 -0.7499892538859954 -4.049056718492096
          0.5 -0.6524897388330029 -4.217930832277208 0.34999999999999987 -0.5499863882555946 -4.395471843423324
          0.5 -0.5789651923888245 -3.9503159305488023 0.5 -0.3333559103591772 -4.2704001786951515
          0.3499963135621981 -0.6504733583890367 -4.222603331818686 0.34999999999999987 -0.578965192388824 -3.950315930548802
          0.49999999999999994 -0.4592329784781636 -4.106353989663627 0.34999999999999987 -0.33335591035917794 -4.27040017869515
          0.34999329710644383 -0.4564063573841072 -4.109013101876152 0.5 -1.1118679172321897 -4.198911434247225
          0.5 -1.008366028494107 -4.585287816713151 0.34999999999999987 -1.1118679172321895 -4.198911434247224
          0.5 -1.0610418927071692 -4.386017280915718 0.34999999999999987 -1.0083660284941063 -4.585287816713151
          0.5 -0.9210133153831676 -4.147797506435394 0.5 -0.7666168661520122 -4.520543508151499
          0.34998052137782565 -1.059950451270696 -4.387826388648653 0.3499999999999998 -0.9210133153831668 -4.147797506435391
          0.5 -0.8457464991878422 -4.329507674890788 0.3499999999999998 -0.7666168661520114 -4.520543508151498
          0.3499993300179524 -0.8445403593939663 -4.3361935617612195 0.5000000000000002 -1.5 -4.250006876282957
          0.5000000000000002 -1.5 -4.650008709958415 0.3499999999999999 -1.5 -4.25
          0.5 -1.5 -4.449999999999999 0.3499999999999999 -1.5 -4.65
          0.5000000000000001 -1.302722519081212 -4.250025362059056 0.5000000000000001 -1.2501151908362016 -4.650032125274805
          0.350036370615168 -1.5000000000001272 -4.462706734315489 0.3499999999999999 -1.3027225190812122 -4.250025362059057
          0.5000000000000001 -1.2763372862264963 -4.442526886940649 0.3499999999999999 -1.2501151908362012 -4.650032125274805
          0.34996171273769894 -1.2753605431474258 -4.439459215536086 -0.49999999999999983 -1.5 -4.650008709958415
          -0.49999999999999983 -1.5 -4.250006876282957 -0.5000000000000003 -1.0083660284941067 -4.585287816713152
          -0.5000000000000002 -1.1118679172321895 -4.198911434247225 -0.49999999999999933 -1.5 -4.449999999999999
          -0.3499999999999999 -1.5 -4.25 -0.3499999999999999 -1.5 -4.65
          -0.5000000000000001 -1.2501151908362016 -4.650032125274807 -0.5000000000000002 -1.302722519081212 -4.250025362059055
          -0.49999999999999956 -1.061041892707169 -4.386017280915718 -0.3500000000000001 -1.1118679172321895 -4.198911434247224
          -0.35 -1.0083660284941063 -4.585287816713151 -0.3500363706151679 -1.5000000000001277 -4.462706734315489
          -0.4999999999999996 -1.2763372862264966 -4.44252688694065 -0.3500000000000001 -1.3027225190812124 -4.250025362059057
          -0.3500000000000001 -1.2501151908362012 -4.650032125274805 -0.349980521377826 -1.0599504512706965 -4.387826388648653
          -0.3499617127376994 -1.275360543147425 -4.439459215536086 -0.5000000000000007 -0.5499863882555948 -4.395471843423325
          -0.5000000000000006 -0.7499892538859958 -4.049056718492098 -0.5000000000000006 -0.7666168661520117 -4.520543508151498
          -0.5000000000000003 -0.9210133153831672 -4.147797506435395 -0.4999999999999997 -0.6524897388330027 -4.217930832277207
          -0.3500000000000001 -0.7499892538859954 -4.049056718492096 -0.35 -0.5499863882555946 -4.395471843423323
          -0.49999999999999944 -0.8457464991878415 -4.329507674890787 -0.35000000000000003 -0.9210133153831663 -4.147797506435391
          -0.34999999999999987 -0.7666168661520113 -4.520543508151497 -0.3499963135621984 -0.6504733583890374 -4.222603331818685
          -0.3499993300179525 -0.844540359393968 -4.33619356176122 -0.5000000000000009 -0.1564778658320142 -4.093522134167986
          -0.5000000000000008 -0.4393246309200112 -3.8106753690799895 -0.5000000000000007 -0.3333559103591778 -4.270400178695151
          -0.5000000000000008 -0.5789651923888245 -3.9503159305488023 -0.5 -0.30143949440726886 -3.9485605055927313
          -0.3500000000000002 -0.43932463092001106 -3.8106753690799886 -0.35000000000000014 -0.15647786583201406 -4.093522134167985
          -0.5 -0.4592329784781639 -4.106353989663627 -0.35000000000000014 -0.5789651923888244 -3.9503159305488023
          -0.35000000000000014 -0.33335591035917805 -4.27040017869515 -0.34999367334070197 -0.29857661273958147 -3.951362076088567
          -0.34999329710644433 -0.4564063573841069 -4.109013101876149 -0.5000000000000009 0.14547184342332317 -3.7000136117444056
          -0.5000000000000007 -0.20094328150790286 -3.500010746114005 -0.500000000000001 0.020400178695149377 -3.916644089640822
          -0.5000000000000008 -0.29968406945119797 -3.6710348076111767 -0.4999999999999999 -0.032069167722792453 -3.5975102611669962
          -0.3500000000000001 -0.2009432815079029 -3.5000107461140044 -0.35000000000000003 0.14547184342332345 -3.700013611744405
          -0.5 -0.1436460103363738 -3.7907670215218356 -0.3500000000000002 -0.2996840694511977 -3.671034807611175
          -0.35000000000000014 0.020400178695149925 -3.9166440896408217 -0.34999571537580687 -0.027570966946328858 -3.599536650934584
          -0.34999404957495966 -0.14074686809505602 -3.793711050300985 -0.5000000000000009 0.3352878167131501 -3.2416339715058946
          -0.5000000000000007 -0.051088565752776344 -3.138132082767811 -0.5000000000000009 0.27054350815149697 -3.4833831338479895
          -0.5000000000000006 -0.10220249356460773 -3.3289866846168334 -0.5000000000000001 0.13601728091571888 -3.1889581072928292
          -0.35000000000000003 -0.051088565752776205 -3.1381320827678105 -0.35 0.33528781671315 -3.241633971505894
          -0.49999999999999983 0.0795076748907889 -3.4042535008121564 -0.35000000000000003 -0.10220249356460809 -3.328986684616834
          -0.3499999999999999 0.27054350815149697 -3.4833831338479886 -0.34998258265785986 0.1382564439424211 -3.1900914098481694
          -0.3499973811766541 0.0856049342023983 -3.4053622515681834 -0.5000000000000004 0.40000435497920633 -2.7498669697588327
          -0.5000000000000002 0.0000034381414787383697 -2.7498949761253946 -0.5000000000000008 0.40003212527480325 -2.9998848091637993
          -0.5000000000000007 0.000025362059055041367 -2.9472774809187885 -0.5000000000000002 0.1999999999999998 -2.75
          -0.35 4.500577130499275e-17 -2.75 -0.35000000000000003 0.4000000000000001 -2.75
          -0.5000000000000003 0.19252688694064887 -2.9736627137735026 -0.35000000000000003 0.00002536205905568495 -2.947277480918787
          -0.3500000000000001 0.40003212527480303 -2.9998848091637997 -0.35001824243313046 0.20632736140266428 -2.749702020958892
          -0.3499677841390656 0.19090795368244387 -2.9748205681281554 0.2 -4.1000000000000005 -0.4583334264167024
          0.2 -3.4 -0.4583334264167025 -0.2 -3.3999999999999995 -0.4583334264167026
          -0.2 -4.1000000000000005 -0.45833342641670205 0.2 -3.749999999999999 -0.4583334264167024
          -2.3108013652638132e-18 -3.399999020465752 -0.4583321538999234 -0.19999999999999996 -3.7499999999999982 -0.45833342641670205
          2.7621020751016823e-17 -4.1 -0.45833342641670194 0.2 -4.1000000000000005 -0.22916676905837222
          0.2 -3.3999999999999995 -0.22916676905837247 -0.19999999999999996 -3.3999999999999995 -0.22916676905837247
          -0.2 -4.1000000000000005 -0.22916676905837227 3.083307460687358e-17 -3.7499901921689935 -0.45833455050052485
          0.2 -3.7499999999999987 -0.22916676905837255 1.147832943089272e-17 -3.400000033690231 -0.22917077391427468
          -0.19999999999999998 -3.75 -0.22916676905837244 2.8626016788326803e-17 -4.1000000000000005 -0.22916676905837235
          1.557687250238451e-17 -3.7500240767017936 -0.22916307168874545 0.20000000000000004 -4.100000000000001 -0.9166667411333624
          0.20000000000000004 -3.4000000000000004 -0.9166667411333624 -0.20000000000000007 -3.4000000000000004 -0.9166667411333626
          -0.20000000000000004 -4.100000000000001 -0.9166667411333618 0.19999999999999998 -3.749999999999999 -0.9166667411333619
          -3.1011000565719892e-18 -3.4000035798118784 -0.9166704615641632 -0.19999999999999996 -3.7499999999999982 -0.9166667411333618
          2.894340048237616e-17 -4.1 -0.916666741133362 0.20000000000000004 -4.1000000000000005 -0.6875000837750326
          0.20000000000000004 -3.4000000000000004 -0.6875000837750326 -0.20000000000000004 -3.4 -0.6875000837750327
          -0.20000000000000004 -4.1000000000000005 -0.6875000837750318 6.494296567842206e-17 -3.750028839579019 -0.9166631913570784
          0.19999999999999998 -3.749999999999999 -0.6875000837750322 -1.6099932161420347e-17 -3.399998007241273 -0.6874935338855721
          -0.19999999999999993 -3.749999999999997 -0.6875000837750317 2.6616024713706843e-17 -4.1 -0.6875000837750316
          4.608927671136265e-17 -3.7499563076361935 -0.6875060293123043 0.20000000000000004 -4.100000000000001 -1.3750000558500224
          0.20000000000000004 -3.400000000000001 -1.3750000558500224 -0.20000000000000007 -3.400000000000001 -1.3750000558500224
          -0.20000000000000004 -4.100000000000001 -1.3750000558500215 0.19999999999999998 -3.749999999999999 -1.3750000558500213
          1.1584696856542971e-17 -3.399987309388673 -1.3749913574171686 -0.19999999999999998 -3.749999999999999 -1.3750000558500215
          3.1639802939211146e-17 -4.1 -1.375000055850022 0.20000000000000004 -4.100000000000001 -1.1458333984916924
          0.20000000000000004 -3.400000000000001 -1.1458333984916924 -0.20000000000000007 -3.400000000000001 -1.1458333984916924
          -0.20000000000000004 -4.100000000000001 -1.1458333984916917 8.10949188070586e-17 -3.7499270505785995 -1.3750084176833777
          0.19999999999999998 -3.749999999999999 -1.1458333984916915 9.897732048276368e-18 -3.4000091523824834 -1.1458473892427543
          -0.19999999999999998 -3.749999999999999 -1.1458333984916917 3.127077625104548e-17 -4.1 -1.1458333984916924
          8.379665464548148e-17 -3.7501013715218448 -1.1458203534018525 0.20000000000000004 -4.100000000000001 -1.8333333705666819
          0.20000000000000004 -3.400000000000001 -1.8333333705666819 -0.20000000000000007 -3.400000000000001 -1.833333370566682
          -0.20000000000000004 -4.100000000000001 -1.8333333705666814 0.2 -3.749999999999999 -1.8333333705666806
          5.433783933390623e-18 -3.400049414153626 -1.8333540664121781 -0.2 -3.7499999999999987 -1.8333333705666808
          3.088525594566057e-17 -4.1 -1.8333333705666808 0.20000000000000004 -4.100000000000001 -1.6041667132083521
          0.20000000000000004 -3.400000000000001 -1.6041667132083521 -0.20000000000000007 -3.400000000000001 -1.6041667132083521
          -0.20000000000000004 -4.100000000000001 -1.604166713208351 8.344878172881716e-17 -3.7501862104238883 -1.8333132142019233
          0.19999999999999998 -3.749999999999999 -1.604166713208351 1.3271661664809573e-17 -3.3999654663948626 -1.604135325591583
          -0.19999999999999998 -3.749999999999999 -1.6041667132083512 3.200882962737681e-17 -4.1 -1.6041667132083517
          7.839318296863571e-17 -3.749752729635354 -1.6041964819649028 0.20000000000000004 -4.100000000000001 -2.2916666852833414
          0.20000000000000004 -3.4000000000000004 -2.2916666852833414 -0.20000000000000004 -3.4000000000000004 -2.2916666852833414
          -0.20000000000000004 -4.100000000000001 -2.2916666852833414 0.2 -3.75 -2.2916666852833405
          6.973363044605559e-18 -3.4000958364440015 -2.2916120759891023 -0.2 -3.75 -2.2916666852833405
          3.950056552552994e-17 -4.1 -2.2916666852833405 0.20000000000000004 -4.100000000000001 -2.0625000279250116
          0.20000000000000004 -3.400000000000001 -2.0625000279250116 -0.20000000000000007 -3.400000000000001 -2.062500027925012
          -0.20000000000000004 -4.100000000000001 -2.0625000279250116 1.8248781346153548e-17 -3.749516160601325 -2.291717623942506
          0.2 -3.7499999999999996 -2.0625000279250103 -2.404093798028327e-18 -3.4001333619123892 -2.0625728072327734
          -0.2 -3.7499999999999982 -2.0625000279250103 2.976168226394433e-17 -4.1 -2.06250002792501
          8.850438048899861e-17 -3.7506196912124232 -2.062429946438944 0.2 -4.10000595944523 -2.74981795861735
          0.20000000000000004 -3.4000043549792065 -2.7498669697588327 -0.20000000000000004 -3.4000043549792065 -2.7498669697588327
          -0.20000000000000004 -4.10000595944523 -2.74981795861735 0.19999999999999996 -3.75 -2.75
          -1.3407868575058477e-17 -3.404684472834452 -2.750489358742675 -0.2 -3.75 -2.75
          4.592716591420718e-17 -4.1 -2.75 0.20000000000000004 -4.1000000000000005 -2.520833342641671
          0.20000000000000004 -3.4 -2.520833342641671 -0.2 -3.3999999999999995 -2.520833342641671
          -0.20000000000000004 -4.1000000000000005 -2.520833342641671 5.0732600051541645e-17 -3.756297657559678 -2.749340541692825
          0.19999999999999998 -3.75 -2.5208333426416702 1.6350819887239446e-17 -3.4000583109756133 -2.5206513447454313
          -0.19999999999999998 -3.7500000000000013 -2.5208333426416702 4.923944878711555e-17 -4.1000000000000005 -2.5208333426416707
          -5.2006817796691517e-17 -3.748412629990227 -2.5210053014460674 0.2 0.4 -0.45833333333333354
          0.2 1.1 -0.45833333333333354 -0.2 1.1 -0.45833333333333354
          -0.2 0.4 -0.45833333333333354 0.2 0.7499999999999999 -0.4583333333333332
          2.7362423443386897e-17 1.1 -0.458333341478128 -0.2 0.7499999999999999 -0.45833333333333326
          2.5626007800810398e-17 0.39999902020241895 -0.45833206444244146 0.2 0.4 -0.22916666666666666
          0.2 1.0999999999999999 -0.22916666666666666 -0.2 1.0999999999999999 -0.22916666666666674
          -0.19999999999999996 0.3999999999999999 -0.22916666666666666 4.997917381811133e-17 0.7499901935234277 -0.4583344615648833
          0.19999999999999998 0.75 -0.22916666666666677 3.328076832566544e-17 1.0999999999999999 -0.22916668761042458
          -0.19999999999999998 0.75 -0.22916666666666669 -1.5550676215093407e-17 0.4000000329128322 -0.2291706797455446
          -1.320941194245657e-17 0.7500240811849005 -0.22916298192607173 0.20000000000000004 0.4000000000000001 -0.9166666666666672
          0.20000000000000004 1.1000000000000005 -0.9166666666666672 -0.20000000000000004 1.1000000000000005 -0.916666666666667
          -0.20000000000000007 0.40000000000000013 -0.9166666666666671 0.2 0.7499999999999998 -0.9166666666666663
          2.635742740607692e-17 1.1 -0.9166666643395825 -0.2 0.7499999999999998 -0.9166666666666667
          5.3131888121517117e-17 0.4000035798758954 -0.9166703868070368 0.20000000000000004 0.4000000000000001 -0.6875000000000004
          0.20000000000000004 1.1000000000000005 -0.6875000000000004 -0.20000000000000004 1.1000000000000005 -0.6875000000000003
          -0.20000000000000004 0.4000000000000001 -0.6875000000000004 9.37938965327924e-17 0.7500288391120582 -0.9166631156974896
          0.2 0.7499999999999998 -0.6874999999999997 2.1444078561108358e-17 1.1 -0.6874999953458314
          -0.2 0.7499999999999998 -0.6874999999999998 6.68026918167142e-17 0.3999980074920057 -0.6874934491393383
          1.1316775957867923e-16 0.7499563058619548 -0.6875059412036948 0.20000000000000004 0.4000000000000001 -1.3750000000000002
          0.20000000000000004 1.1000000000000008 -1.3750000000000002 -0.20000000000000004 1.1000000000000008 -1.375
          -0.2000000000000001 0.40000000000000013 -1.3750000000000002 0.2 0.7499999999999999 -1.3749999999999998
          3.1639802939211146e-17 1.1000000000000003 -1.3750000000000002 -0.2 0.7499999999999999 -1.3750000000000002
          4.218150768663504e-17 0.3999873093536172 -1.3749913016470603 0.20000000000000004 0.4000000000000001 -1.145833333333334
          0.20000000000000004 1.1000000000000008 -1.145833333333334 -0.20000000000000004 1.1000000000000008 -1.1458333333333337
          -0.2000000000000001 0.40000000000000013 -1.1458333333333337 7.982315213006672e-17 0.7499270507918319 -1.3750083624238965
          0.2 0.7499999999999999 -1.145833333333333 3.127077625104548e-17 1.1000000000000003 -1.1458333333333337
          -0.2 0.7499999999999999 -1.1458333333333337 3.946108442632003e-17 0.40000915225978506 -1.1458473244747354
          7.442003348690557e-17 0.7501013723621615 -1.1458202901912844 0.20000000000000004 0.4000000000000001 -1.833333333333334
          0.20000000000000004 1.1000000000000008 -1.833333333333334 -0.20000000000000004 1.1000000000000008 -1.8333333333333337
          -0.2000000000000001 0.40000000000000013 -1.833333333333334 0.2 0.7499999999999999 -1.8333333333333337
          3.088525594566057e-17 1.1000000000000005 -1.8333333333333335 -0.20000000000000004 0.7499999999999999 -1.8333333333333335
          3.849521861995073e-17 0.4000494141727923 -1.8333540291214088 0.20000000000000004 0.4000000000000001 -1.6041666666666665
          0.20000000000000004 1.1000000000000008 -1.6041666666666665 -0.20000000000000004 1.1000000000000008 -1.6041666666666665
          -0.2000000000000001 0.40000000000000013 -1.6041666666666667 9.236374760203586e-17 0.7501862103269694 -1.8333131767443687
          0.2 0.7499999999999999 -1.6041666666666665 3.200882962737681e-17 1.1000000000000003 -1.6041666666666667
          -0.2 0.7499999999999999 -1.6041666666666667 4.4901930946950046e-17 0.39996546644744935 -1.604135278819385
          8.522627077322786e-17 0.7497527292215023 -1.6041964346565085 0.20000000000000004 0.4000000000000001 -2.291666666666667
          0.20000000000000004 1.1000000000000005 -2.291666666666667 -0.20000000000000004 1.1000000000000005 -2.291666666666667
          -0.2 0.4000000000000001 -2.291666666666667 0.2 0.75 -2.291666666666667
          3.950056552552994e-17 1.1000000000000003 -2.2916666666666665 -0.2 0.7500000000000002 -2.2916666666666665
          1.4145128812913415e-19 0.4000958363918874 -2.2916120573912258 0.20000000000000004 0.4000000000000001 -2.0625000000000013
          0.20000000000000004 1.1000000000000008 -2.0625000000000013 -0.20000000000000004 1.1000000000000008 -2.062500000000001
          -0.2000000000000001 0.40000000000000013 -2.062500000000001 3.6386720593715857e-17 0.7495161606144678 -2.2917176054069444
          0.2 0.7499999999999999 -2.062500000000001 2.976168226394433e-17 1.1000000000000005 -2.0625000000000004
          -0.20000000000000007 0.7499999999999999 -2.0625000000000004 3.2088506292951417e-17 0.40013336189813525 -2.0625727794234323
          9.950122443084385e-17 0.7506196914324366 -2.062429918832229 0.20000000000000004 0.4000000000000001 -2.5208333333333326
          0.20000000000000004 1.1 -2.5208333333333326 -0.20000000000000004 1.1 -2.5208333333333326
          -0.19999999999999996 0.4 -2.5208333333333326 0.2 0.75 -2.5208333333333326
          4.923944878711555e-17 1.1 -2.5208333333333326 -0.19999999999999998 0.7500000000000006 -2.5208333333333326
          -3.180560371669315e-17 0.4000583108856396 -2.5206513353590196 -2.6727783243412133e-17 0.7484126297964989 -2.5210052919816595
          0.2 -1.1102230246251564e-16 -0.45833342641670205 0.49999999999999994 -5.551115123125782e-17 -0.45833342641670216
          0.49999999999999994 0.4 -0.45833341012711226 0.20000000765503648 0.19999612017267399 -0.4583320457635439
          0.3499999999999998 -4.500577130499274e-17 -0.45833342641670205 0.4999999999999999 0.19999999999999996 -0.4583334223443047
          0.3499999999999998 0.39999999999999997 -0.45833337987501727 0.19999999999999996 -1.1102230246251563e-16 -0.22916676905837222
          0.4999999999999999 -5.5511151231257815e-17 -0.2291667690583722 0.4999999999999999 0.4 -0.22916672717085607
          0.3499999584402737 0.19999103312519184 -0.45833438159885226 0.19999999356348852 0.2000067934376087 -0.2291708656195553
          0.3499999999999998 -4.500577130499273e-17 -0.22916676905837224 0.4999999999999999 0.1999999999999998 -0.22916675858649294
          0.3499999999999998 0.3999999999999999 -0.2291667178625193 0.35000005460786343 0.2000217042874563 -0.2291633521451283
          0.2000000000000001 -1.1102230246251565e-16 -0.9166667411333616 0.5 -5.551115123125783e-17 -0.916666741133362
          0.5 0.4000000000000001 -0.9166667457875302 0.19999999283400155 0.2000122828926112 -0.9166707631902116
          0.34999999999999987 -4.500577130499274e-17 -0.9166667411333613 0.49999999999999994 0.20000000000000007 -0.9166667422969035
          0.34999999999999987 0.4 -0.9166667039000141 0.20000000000000007 -1.1102230246251565e-16 -0.6875000837750319
          0.5 -5.551115123125783e-17 -0.6875000837750321 0.5 0.4000000000000001 -0.6875000930833685
          0.3500001029994164 0.20002683349014216 -0.9166637796494163 0.20000002174658443 0.19998544690773926 -0.6874932259075325
          0.3499999999999998 -4.500577130499274e-17 -0.6875000837750319 0.49999999999999994 0.2000000000000001 -0.6875000861021164
          0.3499999999999998 0.4 -0.6875000418875152 0.349999862272684 0.19996036196292738 -0.6875054110525762
          0.20000000000000012 -1.1102230246251565e-16 -1.3750000558500215 0.5 -5.551115123125783e-17 -1.375000055850022
          0.5 0.4000000000000001 -1.3750000558500213 0.20000002425350727 0.19996557996599196 -1.374990355831947
          0.34999999999999987 -4.500577130499274e-17 -1.3750000558500213 0.49999999999999994 0.2 -1.375000055850021
          0.34999999999999987 0.4 -1.3750000279250107 0.20000000000000012 -1.1102230246251565e-16 -1.1458333984916913
          0.5 -5.551115123125783e-17 -1.1458333984916917 0.5 0.4000000000000001 -1.1458333984916917
          0.3499997170261743 0.19993085513019676 -1.3750069317892057 0.1999999639214187 0.20003911887748313 -1.1458483004728908
          0.34999999999999987 -4.500577130499274e-17 -1.1458333984916909 0.49999999999999994 0.2 -1.1458333984916904
          0.34999999999999987 0.4 -1.145833365912513 0.3500003437261488 0.20009330501735692 -1.1458221482462563
          0.20000000000000012 -1.1102230246251565e-16 -1.8333333705666819 0.5 -5.551115123125783e-17 -1.8333333705666819
          0.5 0.4000000000000001 -1.8333333705666814 0.1999999580926874 0.20010171670422902 -1.8333568026099258
          0.34999999999999987 -4.500577130499274e-17 -1.8333333705666814 0.5 0.20000000000000007 -1.8333333705666814
          0.34999999999999987 0.4 -1.8333333519500061 0.20000000000000012 -1.1102230246251565e-16 -1.604166713208352
          0.5 -5.551115123125783e-17 -1.6041667132083521 0.5 0.4000000000000001 -1.6041667132083508
          0.35000071018352114 0.2001787668730824 -1.8333171163165356 0.20000008458559582 0.19989204105450076 -1.6041324111910031
          0.34999999999999987 -4.500577130499274e-17 -1.6041667132083517 0.49999999999999994 0.2 -1.6041667132083517
          0.34999999999999987 0.4 -1.6041666899375084 0.34999909032619975 0.19976840524303657 -1.6041917153321554
          0.20000000000000007 -1.1102230246251565e-16 -2.2916666852833414 0.5 -5.551115123125783e-17 -2.2916666852833414
          0.5 0.4000000000000001 -2.2916666852833414 0.20000017223174665 0.19989045498467467 -2.2916045928076496
          0.34999999999999987 -4.500577130499274e-17 -2.291666685283341 0.5 0.1999999999999999 -2.291666685283341
          0.34999999999999987 0.4 -2.2916666759750033 0.20000000000000012 -1.1102230246251565e-16 -2.0625000279250116
          0.5 -5.551115123125783e-17 -2.0625000279250116 0.5 0.4000000000000001 -2.062500027925012
          0.34999785808483364 0.19955380353626104 -2.2917163669823495 0.19999983159977897 0.20031139235395728 -2.0625811940288488
          0.34999999999999987 -4.500577130499274e-17 -2.062500027925011 0.5 0.2000000000000001 -2.062500027925011
          0.34999999999999987 0.4 -2.062500013962504 0.3500023300408425 0.2005891285031282 -2.0624425173009158
          0.2 -1.1102230246251568e-16 -2.520833342641671 0.5000000000000001 -5.551115123125784e-17 -2.520833342641671
          0.5000000000000001 0.4000000000000001 -2.520833342641671 0.20000051286371437 0.19946951761539206 -2.520627991586451
          0.3499999999999999 -4.500577130499273e-17 -2.5208333426416707 0.5000000000000001 0.19999999999999973 -2.5208333426416707
          0.3499999999999999 0.4 -2.520833337987502 0.3499933861288248 0.19851847856939386 -2.5209902166637828
          -0.2 0 -0.4583334264167018 -0.20000000765503642 0.19999612017267399 -0.4583320457635436
          -2.587524183406275e-17 6.162975822039155e-33 -0.4583334264167016 -0.19999999999999996 0 -0.22916676905837188
          -3.519596235402088e-17 0.1999976264690901 -0.45833450600477466 -0.19999999356348852 0.20000679343760863 -0.2291708656195552
          -6.42531846729221e-17 0 -0.2291667690583722 -4.882176029249266e-17 0.2000053817965576 -0.2291621588828014
          -0.20000000000000007 0 -0.9166667411333618 -0.19999999283400147 0.20001228289261125 -0.9166707631902113
          1.534727138872576e-17 1.1074097180226606e-32 -0.9166667411333611 -0.20000000000000004 0 -0.6875000837750317
          5.260427132738194e-18 0.2000070090494388 -0.916663408129816 -0.20000002174658432 0.19998544690773937 -0.687493225907532
          1.2502701004796598e-17 1.232595164407831e-32 -0.687500083775031 -2.15701644155491e-17 0.19998987114162262 -0.6875068531267479
          -0.2000000000000001 0 -1.3750000558500213 -0.20000002425350716 0.19996557996599196 -1.374990355831947
          1.7571208234343104e-17 9.533353224716817e-33 -1.3750000558500208 -0.2000000000000001 0 -1.1458333984916917
          2.7863357157987565e-17 0.19998132036781452 -1.3750072169643508 -0.1999999639214186 0.20003911887748316 -1.1458483004728905
          1.8191841772654922e-17 9.822242716374903e-33 -1.145833398491691 3.209101868102549e-17 0.20002414695725498 -1.145819963132884
          -0.2000000000000001 0 -1.8333333705666814 -0.19999995809268728 0.20010171670422902 -1.8333568026099263
          2.828300792277161e-17 1.232595164407831e-32 -1.833333370566681 -0.2000000000000001 0 -1.6041667132083508
          2.8079815011577656e-17 0.20005897073757212 -1.833318008555379 -0.20000008458559573 0.19989204105450076 -1.6041324111910031
          1.6950574696031285e-17 9.244463733058732e-33 -1.6041667132083506 2.3635695634949643e-17 0.19993849377837408 -1.6041944707958176
          -0.2 0 -2.2916666852833414 -0.20000017223174654 0.19989045498467473 -2.291604592807651
          7.395049808519597e-18 7.703719777548943e-33 -2.2916666852833414 -0.2000000000000001 0 -2.062500027925012
          2.6234179015386687e-17 0.20001279420890883 -2.2917168572690203 -0.19999983159977885 0.20031139235395728 -2.062581194028849
          3.9615441149511926e-17 1.5407439555097887e-32 -2.062500027925011 3.2523934388205664e-17 0.20017944769677012 -2.0624415463149406
          -0.19999999999999996 0 -2.520833342641671 -0.20000051286371426 0.19946951761539217 -2.5206279915864527
          -2.4825341532472732e-17 0 -2.520833342641671 1.994442364256771e-17 0.1998461407210475 -2.5209921682231
          -0.5000000000000004 0.4000000000000001 -2.2916666852833414 -0.5000000000000001 6.429395900713255e-17 -2.2916666852833414
          -0.5000000000000003 0.4 -2.520833342641671 -0.5000000000000001 6.429395900713255e-17 -2.520833342641671
          -0.5000000000000002 0.19999999999999998 -2.2916666852833405 -0.34999999999999987 4.500577130499275e-17 -2.291666685283341
          -0.3500000000000001 0.4000000000000001 -2.2916666759750033 -0.5000000000000003 0.1999999999999999 -2.5208333426416707
          -0.3499999999999999 4.500577130499274e-17 -2.5208333426416707 -0.35000000000000014 0.4 -2.520833337987502
          -0.34999785808483397 0.1995538035362608 -2.2917163669823495 -0.3499933861288251 0.19851847856939345 -2.520990216663785
          -0.5000000000000004 0.40000000000000013 -1.8333333705666819 -0.5000000000000001 6.429395900713255e-17 -1.8333333705666819
          -0.5000000000000004 0.40000000000000013 -2.062500027925012 -0.5000000000000001 6.429395900713255e-17 -2.062500027925012
          -0.5000000000000002 0.20000000000000004 -1.833333370566681 -0.34999999999999987 4.500577130499275e-17 -1.8333333705666806
          -0.35 0.40000000000000013 -1.833333351950007 -0.5000000000000002 0.20000000000000007 -2.0625000279250107
          -0.34999999999999987 4.5005771304992764e-17 -2.062500027925011 -0.35 0.40000000000000013 -2.0625000139625045
          -0.3500007101835215 0.20017876687308228 -1.833317116316536 -0.3500023300408429 0.20058912850312813 -2.062442517300914
          -0.5000000000000004 0.40000000000000013 -1.3750000558500217 -0.5000000000000001 6.429395900713255e-17 -1.3750000558500217
          -0.5000000000000004 0.40000000000000013 -1.6041667132083517 -0.5000000000000001 6.429395900713255e-17 -1.604166713208352
          -0.5000000000000002 0.2 -1.375000055850021 -0.34999999999999987 4.5005771304992745e-17 -1.3750000558500206
          -0.35 0.4000000000000001 -1.3750000279250112 -0.5000000000000002 0.2 -1.6041667132083512
          -0.34999999999999987 4.5005771304992745e-17 -1.60416671320835 -0.35 0.40000000000000013 -1.6041666899375093
          -0.3499997170261746 0.19993085513019662 -1.3750069317892062 -0.3499990903262001 0.19976840524303646 -1.6041917153321579
          -0.5000000000000004 0.40000000000000013 -0.9166667457875302 -0.5 6.429395900713255e-17 -0.9166667411333618
          -0.5000000000000004 0.40000000000000013 -1.1458333984916917 -0.5000000000000001 6.429395900713255e-17 -1.1458333984916915
          -0.5000000000000002 0.2 -0.9166667422969036 -0.3499999999999998 4.5005771304992745e-17 -0.9166667411333616
          -0.35 0.4 -0.916666703900014 -0.5000000000000002 0.2 -1.145833398491691
          -0.34999999999999987 4.5005771304992745e-17 -1.1458333984916915 -0.35 0.4 -1.1458333659125128
          -0.35000010299941675 0.20002683349014203 -0.9166637796494155 -0.3500003437261491 0.20009330501735678 -1.1458221482462545
          -0.5000000000000002 0.4 -0.4583334101271125 -0.49999999999999994 6.429395900713252e-17 -0.4583334264167021
          -0.5000000000000003 0.4000000000000001 -0.6875000930833687 -0.5 6.429395900713254e-17 -0.687500083775032
          -0.5000000000000002 0.19999999999999996 -0.4583334223443046 -0.34999999999999987 4.5005771304992764e-17 -0.4583334264167019
          -0.35000000000000003 0.39999999999999997 -0.4583333798750173 -0.5000000000000001 0.2 -0.6875000861021161
          -0.34999999999999976 4.5005771304992745e-17 -0.6875000837750316 -0.35 0.4 -0.6875000418875152
          -0.349999958440274 0.19999103312519206 -0.4583343815988525 -0.34999986227268437 0.19996036196292727 -0.6875054110525765
          -0.5000000000000002 0.3999999999999999 -0.22916672717085623 -0.4999999999999999 6.429395900713252e-17 -0.22916676905837222
          -0.5000000000000002 0.1999999999999999 -0.22916675858649305 -0.35 4.5005771304992776e-17 -0.22916676905837222
          -0.3500000000000001 0.3999999999999999 -0.22916671786251935 -0.35000005460786365 0.20002170428745686 -0.22916335214512853
          0.2 -3 -0.4583334264167022 0.49999999999999994 -3.3999999999999995 -0.45833342641670205
          0.49999999999999994 -3.000000000000001 -0.458333426416702 0.20000000778711996 -3.1999961205259897 -0.4583320842734253
          0.3499999999999998 -3.3999999999999995 -0.45833342641670205 0.4999999999999999 -3.1999999999999993 -0.4583334264167019
          0.3499999999999998 -2.999999999999999 -0.45833342641670205 0.19999999999999996 -3 -0.22916676905837227
          0.4999999999999999 -3.3999999999999995 -0.22916676905837227 0.4999999999999999 -3 -0.2291667690583723
          0.34999995840178444 -3.1999910322510985 -0.45833439813507193 0.19999999389029388 -3.200006794301608 -0.22917089809414976
          0.3499999999999998 -3.3999999999999995 -0.22916676905837238 0.4999999999999999 -3.2000000000000006 -0.22916676905837244
          0.3499999999999998 -3 -0.22916676905837205 0.3500000542757066 -3.200021701406991 -0.22916335878235672
          0.2000000000000001 -3 -0.916666741133362 0.5 -3.4000000000000004 -0.9166667411333618
          0.5 -3.0000000000000018 -0.9166667411333618 0.1999999928186446 -3.2000122828516435 -0.9166708015402656
          0.34999999999999987 -3.4 -0.916666741133362 0.49999999999999994 -3.1999999999999984 -0.9166667411333616
          0.34999999999999987 -2.9999999999999996 -0.9166667411333616 0.20000000000000007 -3 -0.6875000837750321
          0.5 -3.4 -0.6875000837750318 0.5 -3.0000000000000013 -0.6875000837750317
          0.35000010306381024 -3.2000268337848534 -0.9166637994749696 0.20000002168394604 -3.1999854467503717 -0.6874932704527008
          0.3499999999999998 -3.3999999999999995 -0.6875000837750317 0.49999999999999994 -3.1999999999999975 -0.6875000837750314
          0.3499999999999998 -2.9999999999999987 -0.687500083775032 0.3499998625278623 -3.199960363095206 -0.6875054374877871
          0.20000000000000012 -3.0000000000000004 -1.375000055850022 0.5 -3.400000000000001 -1.3750000558500215
          0.5 -3.0000000000000018 -1.3750000558500215 0.2000000242591024 -3.199965579985014 -1.3749903836891761
          0.34999999999999987 -3.4000000000000004 -1.375000055850022 0.49999999999999994 -3.199999999999999 -1.375000055850021
          0.34999999999999987 -3.0000000000000004 -1.3750000558500215 0.20000000000000012 -3.0000000000000004 -1.1458333984916917
          0.5 -3.400000000000001 -1.1458333984916917 0.5 -3.0000000000000018 -1.1458333984916917
          0.3499997169988336 -3.199930855005678 -1.375006945022776 0.19999996395334318 -3.2000391189529154 -1.1458483326278304
          0.34999999999999987 -3.4000000000000004 -1.1458333984916924 0.49999999999999994 -3.199999999999999 -1.1458333984916917
          0.34999999999999987 -3.0000000000000004 -1.145833398491691 0.35000034359975823 -3.200093304474501 -1.145822161462152
          0.20000000000000012 -3.0000000000000004 -1.8333333705666819 0.5 -3.400000000000001 -1.8333333705666814
          0.5 -3.0000000000000018 -1.8333333705666814 0.19999995808783402 -3.2001017166904493 -1.833356821300609
          0.34999999999999987 -3.4000000000000004 -1.833333370566681 0.5 -3.1999999999999984 -1.8333333705666806
          0.34999999999999987 -3.000000000000001 -1.833333370566681 0.20000000000000012 -3.0000000000000004 -1.6041667132083521
          0.5 -3.400000000000001 -1.604166713208351 0.5 -3.0000000000000018 -1.604166713208351
          0.3500007101960533 -3.200178766938603 -1.8333171260347578 0.2000000845648616 -3.1998920410171126 -1.604132434750522
          0.34999999999999987 -3.4000000000000004 -1.6041667132083517 0.49999999999999994 -3.199999999999999 -1.6041667132083506
          0.34999999999999987 -3.0000000000000004 -1.604166713208352 0.349999090397909 -3.1997684055368545 -1.6041917285833998
          0.20000000000000007 -3 -2.2916666852833414 0.5 -3.4000000000000004 -2.2916666852833414
          0.5 -3.0000000000000013 -2.2916666852833414 0.20000017223364552 -3.1998904550122074 -2.2916046020907177
          0.34999999999999987 -3.4 -2.2916666852833405 0.5 -3.2 -2.2916666852833405
          0.34999999999999987 -3.0000000000000004 -2.2916666852833405 0.20000000000000012 -3.0000000000000004 -2.0625000279250116
          0.5 -3.400000000000001 -2.0625000279250116 0.5 -3.0000000000000018 -2.0625000279250116
          0.3499978580801786 -3.199553803512005 -2.291716371484202 0.19999983161080645 -3.2003113923637865 -2.0625812078506964
          0.3499999999999998 -3.400000000000001 -2.0625000279250103 0.5 -3.1999999999999975 -2.0625000279250107
          0.3499999999999998 -3.000000000000001 -2.0625000279250103 0.3500023299941975 -3.2005891283403516 -2.0624425234861157
          0.2 -3.000003438141478 -2.7498949761253946 0.5000000000000001 -3.4000043549792065 -2.7498669697588327
          0.5000000000000001 -3.000003438141478 -2.7498949761253946 0.200000233547739 -3.2058667259683156 -2.750607589216299
          0.3499999999999999 -3.4 -2.75 0.5 -3.2000000000000006 -2.75
          0.3499999999999999 -3 -2.75 0.2 -3 -2.520833342641671
          0.5000000000000001 -3.4 -2.520833342641671 0.5000000000000001 -3.000000000000001 -2.520833342641671
          0.35001824242060825 -3.20632736139532 -2.749702020875699 0.20000051285648462 -3.1994695176606287 -2.520627996330739
          0.3499999999999999 -3.399999999999999 -2.5208333426416707 0.5000000000000001 -3.200000000000003 -2.5208333426416707
          0.3499999999999999 -3 -2.5208333426416707 0.34999338616615966 -3.198518478683658 -2.5209902194822886
          -0.2 -3 -0.45833342641670205 -0.2000000077871199 -3.1999961205259906 -0.45833208427342526
          -2.5487345872617863e-17 -2.999999999999999 -0.45833342641670183 -0.19999999999999996 -3 -0.22916676905837227
          -9.177682038904758e-17 -3.1999976262880105 -0.458334552503598 -0.19999999389029371 -3.2000067943016104 -0.22917089809414956
          -7.123531197893005e-17 -2.9999999999999996 -0.22916676905837224 -8.773375158080697e-17 -3.2000053811802767 -0.22916221089339525
          -0.20000000000000007 -3.000000000000001 -0.9166667411333618 -0.1999999928186447 -3.2000122828516426 -0.916670801540266
          1.9226231003174625e-17 -2.999999999999999 -0.9166667411333613 -0.20000000000000004 -3.0000000000000004 -0.6875000837750318
          -4.164045786796261e-17 -3.2000070091183663 -0.916663444878542 -0.2000000216839461 -3.1999854467503703 -0.6874932704527009
          2.0260620233694325e-17 -2.9999999999999982 -0.6875000837750314 -9.581988919728819e-17 -3.199989871395744 -0.6875068941138007
          -0.2000000000000001 -3.000000000000001 -1.3750000558500215 -0.2000000242591025 -3.199965579985013 -1.3749903836891755
          1.7571208234343104e-17 -2.9999999999999996 -1.375000055850021 -0.2000000000000001 -3.000000000000001 -1.1458333984916917
          4.473273746573263e-18 -3.1999813203392677 -1.3750072448628061 -0.1999999639533433 -3.2000391189529145 -1.1458483326278313
          1.8191841772654922e-17 -2.9999999999999996 -1.1458333984916913 1.2538973461362974e-17 -3.2000241468409887 -1.1458199956432833
          -0.2000000000000001 -3.000000000000001 -1.8333333705666814 -0.19999995808783413 -3.200101716690449 -1.8333568213006086
          2.82830079227716e-17 -3 -1.83333337056668 -0.2000000000000001 -3.000000000000001 -1.6041667132083512
          -2.4863421625384607e-17 -3.2000589707524894 -1.8333180271836313 -0.20000008456486168 -3.1998920410171117 -1.60413243475052
          1.6950574696031285e-17 -2.9999999999999996 -1.6041667132083506 -3.592425968216448e-18 -3.199938493837547 -1.604194494082329
          -0.2 -3.000000000000001 -2.2916666852833414 -0.20000017223364558 -3.1998904550122065 -2.291604602090718
          7.395049808519594e-18 -3.0000000000000004 -2.2916666852833405 -0.2000000000000001 -3.000000000000001 -2.0625000279250116
          6.646333029443266e-17 -3.2000127942097434 -2.2917168665746885 -0.1999998316108066 -3.200311392363786 -2.0625812078506973
          3.961544114951192e-17 -3.0000000000000004 -2.06250002792501 -4.613441728255276e-17 -3.200179447667432 -2.0624415602849338
          -0.19999999999999996 -3.000003438141478 -2.7498949761253946 -0.20000023354773894 -3.205866725968317 -2.750607589216299
          -8.326672684688674e-17 -3 -2.75 -0.19999999999999996 -3.000000000000001 -2.520833342641671
          1.6429010722326505e-17 -3.203935360756619 -2.7498959876280806 -0.20000051285648454 -3.1994695176606274 -2.520627996330739
          -2.4825341532472732e-17 -3.0000000000000004 -2.5208333426416707 1.7906107787141807e-16 -3.1998461407520553 -2.5209921728644438
          -0.4999999999999989 -3.000003438141478 -2.7498949761253946 -0.4999999999999987 -3.4000043549792065 -2.7498669697588327
          -0.4999999999999988 -3.000000000000001 -2.2916666852833414 -0.49999999999999867 -3.4000000000000004 -2.2916666852833414
          -0.49999999999999867 -3.2000000000000006 -2.75 -0.3499999999999992 -3.4 -2.75
          -0.3499999999999992 -3 -2.75 -0.49999999999999883 -3.000000000000001 -2.520833342641671
          -0.49999999999999867 -3.3999999999999995 -2.520833342641671 -0.4999999999999988 -3.2000000000000006 -2.2916666852833405
          -0.34999999999999926 -3.4 -2.2916666852833405 -0.34999999999999937 -3.000000000000001 -2.2916666852833405
          -0.35001824242060775 -3.20632736139532 -2.7497020208756995 -0.49999999999999883 -3.200000000000003 -2.5208333426416707
          -0.34999999999999926 -3.3999999999999995 -2.5208333426416707 -0.3499999999999994 -3.0000000000000004 -2.5208333426416707
          -0.3499978580801779 -3.1995538035120066 -2.2917163714842026 -0.34999338616615894 -3.1985184786836607 -2.5209902194822895
          -0.4999999999999988 -3.000000000000001 -1.8333333705666819 -0.4999999999999987 -3.400000000000001 -1.8333333705666819
          -0.4999999999999988 -3.000000000000001 -2.062500027925012 -0.4999999999999987 -3.400000000000001 -2.062500027925012
          -0.49999999999999867 -3.1999999999999984 -1.833333370566681 -0.34999999999999926 -3.4000000000000004 -1.833333370566681
          -0.3499999999999993 -3.000000000000001 -1.833333370566681 -0.49999999999999867 -3.1999999999999984 -2.0625000279250103
          -0.34999999999999926 -3.4000000000000004 -2.0625000279250107 -0.3499999999999993 -3.000000000000001 -2.06250002792501
          -0.3500007101960526 -3.200178766938604 -1.8333171260347583 -0.35000232999419695 -3.2005891283403525 -2.062442523486116
          -0.49999999999999883 -3.000000000000001 -1.3750000558500217 -0.4999999999999987 -3.400000000000001 -1.3750000558500217
          -0.49999999999999883 -3.000000000000001 -1.604166713208352 -0.4999999999999987 -3.400000000000001 -1.604166713208352
          -0.49999999999999867 -3.199999999999999 -1.3750000558500215 -0.3499999999999992 -3.4 -1.3750000558500215
          -0.3499999999999993 -3.000000000000001 -1.3750000558500215 -0.49999999999999867 -3.199999999999999 -1.6041667132083517
          -0.34999999999999926 -3.4000000000000004 -1.6041667132083512 -0.3499999999999993 -3.000000000000001 -1.604166713208352
          -0.34999971699883303 -3.199930855005679 -1.375006945022775 -0.34999909039790833 -3.1997684055368554 -1.6041917285834002
          -0.4999999999999988 -3.000000000000001 -0.9166667411333618 -0.49999999999999867 -3.4000000000000004 -0.9166667411333618
          -0.49999999999999883 -3.000000000000001 -1.1458333984916915 -0.4999999999999987 -3.400000000000001 -1.1458333984916915
          -0.49999999999999867 -3.1999999999999984 -0.9166667411333616 -0.3499999999999992 -3.4 -0.9166667411333618
          -0.34999999999999926 -2.9999999999999996 -0.9166667411333613 -0.49999999999999867 -3.199999999999999 -1.1458333984916913
          -0.3499999999999992 -3.3999999999999995 -1.1458333984916917 -0.3499999999999993 -3.000000000000001 -1.1458333984916909
          -0.3500001030638097 -3.2000268337848548 -0.916663799474969 -0.3500003435997577 -3.2000933044745024 -1.1458221614621502
          -0.4999999999999987 -3 -0.4583334264167021 -0.4999999999999985 -3.3999999999999995 -0.45833342641670227
          -0.4999999999999988 -3.0000000000000004 -0.6875000837750319 -0.4999999999999986 -3.4 -0.6875000837750319
          -0.49999999999999867 -3.1999999999999984 -0.4583334264167021 -0.3499999999999992 -3.3999999999999995 -0.4583334264167022
          -0.3499999999999992 -2.999999999999999 -0.45833342641670194 -0.49999999999999867 -3.1999999999999984 -0.6875000837750319
          -0.3499999999999992 -3.4000000000000004 -0.6875000837750319 -0.3499999999999992 -2.9999999999999982 -0.6875000837750319
          -0.34999995840178394 -3.1999910322511003 -0.4583343981350723 -0.3499998625278617 -3.199960363095207 -0.6875054374877878
          -0.49999999999999867 -3 -0.22916676905837227 -0.4999999999999984 -3.3999999999999995 -0.22916676905837263
          -0.4999999999999986 -3.1999999999999984 -0.2291667690583723 -0.34999999999999926 -3.3999999999999986 -0.22916676905837252
          -0.34999999999999926 -3.0000000000000004 -0.22916676905837194 -0.3500000542757062 -3.200021701406993 -0.22916335878235683
          0.2 -2.9489114342472234 -3.1381320827678114 0.20000000000000007 -3.3352878167131497 -3.241633971505893
          0.49999999999999994 -3.3352878167131497 -3.241633971505894 0.49999999999999994 -2.9489114342472234 -3.1381320827678114
          0.20003762442422407 -3.1363147597019827 -3.189670732307034 0.3499999999999998 -3.3352878167131492 -3.241633971505893
          0.4999999999999999 -3.136017280915719 -3.1889581072928315 0.3499999999999998 -2.948911434247223 -3.138132082767811
          0.2 -3.0000253620590542 -2.947277480918789 0.20000000000000004 -3.4000321252748025 -2.999884809163798
          0.4999999999999999 -3.4000321252748025 -2.9998848091637993 0.4999999999999999 -3.0000253620590542 -2.947277480918789
          0.3499825826592519 -3.1382564439436704 -3.190091409853665 0.2000386090321786 -3.1881077027629763 -2.9744225862623153
          0.3499999999999998 -3.4000321252748025 -2.9998848091637993 0.4999999999999999 -3.1925268869406485 -2.973662713773504
          0.3499999999999998 -3.0000253620590542 -2.947277480918787 0.34996778414352236 -3.1909079536863505 -2.974820568146017
          0.20000000000000004 -2.799056718492098 -3.5000107461140053 0.2000000000000001 -3.145471843423323 -3.7000136117444065
          0.5 -3.1454718434233238 -3.7000136117444056 0.5 -2.799056718492098 -3.5000107461140053
          0.20003457860482637 -2.9712865083312865 -3.5988431427531897 0.34999999999999987 -3.145471843423323 -3.700013611744404
          0.49999999999999994 -2.967930832277209 -3.597510261166997 0.34999999999999987 -2.799056718492097 -3.5000107461140044
          0.20000000000000004 -2.8977975064353925 -3.328986684616834 0.2000000000000001 -3.2705435081514964 -3.4833831338479873
          0.5 -3.2705435081514964 -3.483383133847989 0.5 -2.8977975064353925 -3.328986684616834
          0.3499957153752934 -2.972429033053186 -3.5995366509318796 0.2000366398162695 -3.0845218166409896 -3.4049188783517526
          0.3499999999999998 -3.270543508151496 -3.483383133847986 0.49999999999999994 -3.07950767489079 -3.404253500812159
          0.3499999999999998 -2.897797506435392 -3.3289866846168352 0.34999738117498147 -3.08560493420099 -3.405362251561313
          0.20000000000000004 -2.5606753690799904 -3.8106753690799895 0.2000000000000001 -2.8435221341679866 -4.093522134167989
          0.5 -2.843522134167987 -4.093522134167987 0.5 -2.5606753690799904 -3.8106753690799895
          0.20003250566617464 -2.7004077067413657 -3.950365020777585 0.34999999999999987 -2.843522134167986 -4.093522134167986
          0.49999999999999994 -2.698560505592732 -3.9485605055927304 0.34999999999999987 -2.560675369079989 -3.8106753690799886
          0.20000000000000004 -2.7003159305488036 -3.6710348076111767 0.2000000000000001 -3.0204001786951498 -3.9166440896408257
          0.5 -3.0204001786951507 -3.9166440896408226 0.5 -2.7003159305488036 -3.6710348076111767
          0.3499936733409083 -2.7014233872606446 -3.951362076089639 0.20003251739338326 -2.858051200021584 -3.792767407154627
          0.34999999999999987 -3.02040017869515 -3.916644089640822 0.49999999999999994 -2.856353989663628 -3.7907670215218356
          0.34999999999999987 -2.7003159305488027 -3.6710348076111736 0.34999404957560526 -2.8592531319053816 -3.7937110503024467
          0.20000000000000004 -2.2500107461140058 -4.049056718492098 0.2000000000000001 -2.4500136117444065 -4.395471843423325
          0.5 -2.4500136117444065 -4.395471843423325 0.5 -2.2500107461140058 -4.049056718492098
          0.200034534814287 -2.3488082378243367 -4.221389906032384 0.34999999999999987 -2.4500136117444056 -4.395471843423324
          0.5 -2.347510261166997 -4.217930832277208 0.34999999999999987 -2.2500107461140058 -4.049056718492098
          0.20000000000000004 -2.4210348076111767 -3.9503159305488023 0.2000000000000001 -2.6666440896408234 -4.2704001786951515
          0.5 -2.6666440896408234 -4.2704001786951515 0.5 -2.4210348076111767 -3.9503159305488023
          0.3499963135621302 -2.3495266416109777 -4.222603331818918 0.200032493938966 -2.5427642134611474 -4.107962634400543
          0.34999999999999987 -2.666644089640822 -4.27040017869515 0.49999999999999994 -2.5407670215218365 -4.106353989663625
          0.34999999999999987 -2.4210348076111754 -3.950315930548803 0.34999329710621135 -2.5435936426159076 -4.109013101876831
          0.20000000000000004 -1.8881320827678114 -4.198911434247225 0.2000000000000001 -1.9916339715058942 -4.585287816713151
          0.5 -1.991633971505894 -4.585287816713151 0.5 -1.8881320827678114 -4.198911434247225
          0.2000378357642732 -1.9397346598007965 -4.386220759711616 0.34999999999999987 -1.9916339715058937 -4.585287816713151
          0.5 -1.9389581072928306 -4.38601728091572 0.34999999999999987 -1.888132082767812 -4.198911434247224
          0.20000000000000004 -2.0789866846168343 -4.147797506435394 0.2000000000000001 -2.2333831338479895 -4.520543508151499
          0.5 -2.233383133847989 -4.520543508151497 0.5 -2.0789866846168343 -4.147797506435394
          0.3499805213778566 -1.9400495487292075 -4.3878263886483175 0.20003657568960806 -2.154852262187526 -4.334817177664224
          0.3499999999999998 -2.233383133847989 -4.520543508151498 0.5 -2.1542535008121573 -4.329507674890791
          0.3499999999999998 -2.0789866846168357 -4.147797506435393 0.349999330018049 -2.1554596406060478 -4.336193561761004
          0.20000000000000004 -1.6972774809187885 -4.250025362059056 0.2000000000000001 -1.7498848091637986 -4.650032125274805
          0.5000000000000001 -1.7498848091637988 -4.650032125274807 0.5000000000000001 -1.6972774809187885 -4.250025362059056
          0.20003909583893834 -1.7246170574140671 -4.437624341759009 0.3499999999999999 -1.7498848091637982 -4.650032125274805
          0.5000000000000001 -1.7236627137735037 -4.44252688694065 0.3499999999999999 -1.6972774809187885 -4.250025362059054
          0.3499617127376643 -1.7246394568523673 -4.4394592155356305 -0.2 -2.948911434247224 -3.1381320827678114
          -0.2 -3.3352878167131497 -3.241633971505893 -0.20003762442422374 -3.136314759701983 -3.1896707323070337
          5.408746685594342e-17 -3.326905096181081 -3.2407330592695414 -3.189557577160452e-17 -2.948911434247223 -3.138132082767811
          -0.19999999999999996 -3.0000253620590542 -2.947277480918789 -0.19999999999999996 -3.400032125274803 -2.999884809163798
          -9.878176937913517e-18 -3.1408302761021725 -3.190399277152099 -0.20003860903217832 -3.1881077027629767 -2.9744225862623144
          4.4653640553991024e-17 -3.385484486306645 -3.000321737048157 -5.245956403128793e-17 -3.0000253620590556 -2.9472774809187876
          1.5884180746758546e-17 -3.195831120459491 -2.9744200384110275 -0.20000000000000007 -2.799056718492098 -3.5000107461140053
          -0.20000000000000007 -3.1454718434233233 -3.7000136117444065 -0.20003457860482596 -2.971286508331287 -3.59884314275319
          6.581511034514507e-17 -3.1421633160811275 -3.6975003081232476 -9.78000366614157e-18 -2.7990567184920967 -3.500010746114005
          -0.20000000000000004 -2.897797506435393 -3.328986684616834 -0.20000000000000004 -3.2705435081514964 -3.4833831338479873
          -2.6306973235875105e-17 -2.973384148806569 -3.600371981532141 -0.20003663981626912 -3.0845218166409896 -3.404918878351753
          6.352129315789582e-17 -3.2683257060555166 -3.4811443814909255 -1.1331587511921112e-17 -2.8977975064353907 -3.328986684616835
          -3.564053462258558e-17 -3.085829431744854 -3.4063785158931705 -0.20000000000000007 -2.56067536907999 -3.8106753690799895
          -0.20000000000000007 -2.843522134167987 -4.093522134167989 -0.2000325056661742 -2.7004077067413657 -3.950365020777586
          7.326818757565559e-17 -2.8399376790595556 -4.089912895379345 -7.814664128154147e-18 -2.5606753690799886 -3.8106753690799886
          -0.20000000000000007 -2.700315930548803 -3.6710348076111767 -0.20000000000000007 -3.02040017869515 -3.9166440896408257
          -2.201395716610376e-18 -2.702626606430783 -3.9526158398733537 -0.2000325173933828 -2.8580512000215843 -3.792767407154627
          6.810892753239432e-17 -3.016000926106738 -3.913856234755569 -8.228419820362027e-18 -2.7003159305488027 -3.6710348076111745
          -1.697341184916463e-17 -2.8609388658682846 -3.7943654471711112 -0.20000000000000007 -2.2500107461140058 -4.049056718492098
          -0.20000000000000007 -2.4500136117444065 -4.395471843423325 -0.20003453481428676 -2.348808237824336 -4.221389906032384
          6.955458932785215e-17 -2.4474746615288563 -4.392222901965878 -1.3705339394136657e-17 -2.250010746114005 -4.049056718492098
          -0.20000000000000007 -2.4210348076111767 -3.9503159305488023 -0.20000000000000007 -2.6666440896408234 -4.2704001786951515
          3.476208494487667e-17 -2.3503807296894452 -4.223439691063591 -0.20003249393896563 -2.542764213461147 -4.107962634400545
          7.842744761891688e-17 -2.6638744320123733 -4.26596955600312 -7.400908435946268e-18 -2.421034807611174 -3.950315930548803
          1.2570620415943878e-17 -2.544314346993281 -4.110866232575597 -0.20000000000000004 -1.8881320827678114 -4.198911434247225
          -0.20000000000000004 -1.9916339715058942 -4.585287816713151 -0.20003783576427295 -1.9397346598007958 -4.386220759711616
          4.758851174932006e-17 -1.990788560413392 -4.576939363649585 -4.574341715935115e-18 -1.8881320827678119 -4.198911434247222
          -0.20000000000000007 -2.0789866846168343 -4.147797506435395 -0.20000000000000007 -2.2333831338479895 -4.520543508151498
          7.607791256016179e-17 -1.9403497783864756 -4.390869542199346 -0.2000365756896079 -2.1548522621875246 -4.334817177664222
          6.068173103678744e-17 -2.2310748910453393 -4.518476247928637 -2.0009770352327047e-17 -2.0789866846168352 -4.147797506435392
          5.695354947380946e-17 -2.1564471123856097 -4.336013149551585 -0.2 -1.6972774809187885 -4.250025362059055
          -0.2 -1.7498848091637988 -4.650032125274805 -0.200039095838938 -1.724617057414067 -4.43762434175901
          3.4495292461852674e-17 -1.7505022297814448 -4.6354024793705335 1.0861086920456816e-17 -1.6972774809187883 -4.250025362059053
          9.520227564651412e-17 -1.7242524443873413 -4.445725934847108 -0.49999999999999983 -1.888132082767811 -4.198911434247225
          -0.4999999999999999 -1.9916339715058942 -4.585287816713151 -0.49999999999999983 -1.6972774809187883 -4.250025362059055
          -0.4999999999999999 -1.7498848091637988 -4.650032125274805 -0.499999999999999 -1.9389581072928312 -4.386017280915722
          -0.34999999999999987 -1.991633971505893 -4.585287816713151 -0.35 -1.8881320827678116 -4.198911434247224
          -0.4999999999999992 -1.7236627137735034 -4.442526886940651 -0.34999999999999976 -1.749884809163798 -4.650032125274805
          -0.3499999999999999 -1.6972774809187894 -4.250025362059054 -0.34998052137785646 -1.9400495487292064 -4.3878263886483175
          -0.34996171273766447 -1.7246394568523669 -4.439459215535627 -0.4999999999999998 -2.250010746114005 -4.049056718492098
          -0.4999999999999998 -2.4500136117444065 -4.395471843423325 -0.49999999999999983 -2.0789866846168334 -4.147797506435395
          -0.49999999999999983 -2.2333831338479895 -4.520543508151498 -0.499999999999999 -2.347510261166997 -4.217930832277207
          -0.3499999999999999 -2.450013611744405 -4.395471843423323 -0.3499999999999999 -2.2500107461140044 -4.049056718492098
          -0.49999999999999883 -2.154253500812159 -4.329507674890793 -0.35000000000000003 -2.233383133847988 -4.520543508151497
          -0.35000000000000003 -2.078986684616834 -4.147797506435394 -0.3499963135621297 -2.3495266416109786 -4.222603331818919
          -0.34999933001804845 -2.155459640606046 -4.336193561761009 -0.49999999999999967 -2.5606753690799895 -3.8106753690799895
          -0.4999999999999996 -2.843522134167987 -4.093522134167989 -0.4999999999999997 -2.4210348076111763 -3.9503159305488014
          -0.4999999999999997 -2.6666440896408234 -4.2704001786951515 -0.4999999999999989 -2.6985605055927304 -3.948560505592729
          -0.34999999999999976 -2.843522134167986 -4.093522134167986 -0.3499999999999998 -2.5606753690799886 -3.810675369079989
          -0.4999999999999991 -2.540767021521835 -4.106353989663622 -0.3499999999999998 -2.666644089640822 -4.27040017869515
          -0.3499999999999998 -2.421034807611175 -3.9503159305488023 -0.3499936733409078 -2.701423387260644 -3.9513620760896364
          -0.34999329710621085 -2.543593642615911 -4.10901310187683 -0.4999999999999995 -2.799056718492098 -3.5000107461140053
          -0.4999999999999994 -3.1454718434233233 -3.7000136117444065 -0.4999999999999996 -2.7003159305488027 -3.671034807611177
          -0.4999999999999995 -3.02040017869515 -3.9166440896408257 -0.49999999999999867 -2.967930832277208 -3.5975102611669976
          -0.34999999999999976 -3.145471843423323 -3.7000136117444056 -0.3499999999999998 -2.799056718492097 -3.5000107461140053
          -0.49999999999999867 -2.8563539896636256 -3.790767021521837 -0.3499999999999997 -3.02040017869515 -3.916644089640823
          -0.3499999999999998 -2.7003159305488027 -3.671034807611176 -0.34999571537529284 -2.972429033053185 -3.59953665093188
          -0.3499940495756048 -2.8592531319053767 -3.793711050302443 -0.49999999999999933 -2.948911434247224 -3.1381320827678105
          -0.4999999999999992 -3.3352878167131497 -3.241633971505893 -0.4999999999999994 -2.897797506435393 -3.3289866846168334
          -0.4999999999999993 -3.2705435081514964 -3.4833831338479873 -0.49999999999999856 -3.1360172809157194 -3.18895810729283
          -0.34999999999999964 -3.3352878167131497 -3.241633971505893 -0.34999999999999976 -2.948911434247223 -3.1381320827678114
          -0.4999999999999986 -3.0795076748907904 -3.404253500812158 -0.3499999999999998 -3.270543508151496 -3.483383133847988
          -0.3499999999999998 -2.897797506435392 -3.328986684616835 -0.3499825826592514 -3.1382564439436713 -3.1900914098536663
          -0.34999738117498086 -3.085604934200993 -3.405362251561317 -0.4999999999999992 -3.0000253620590542 -2.9472774809187876
          -0.4999999999999992 -3.400032125274803 -2.999884809163798 -0.49999999999999845 -3.1925268869406485 -2.973662713773502
          -0.34999999999999953 -3.400032125274803 -2.999884809163797 -0.34999999999999964 -3.000025362059054 -2.947277480918788
          -0.34996778414352203 -3.19090795368635 -2.9748205681460163 0.2 -4.011446486028522 -3.4227622767975383
          -0.2 -4.011446486028522 -3.422762276797539 0.2 -3.665316989447275 -3.3309739655346275
          -0.19999999999999996 -3.665316989447275 -3.3309739655346275 3.4788223641863446e-17 -4.01144648602852 -3.4227622767975374
          0.2 -4.1000439609023624 -3.0919476335925657 -0.2 -4.1000439609023624 -3.091947633592566
          -1.6399825307061907e-17 -3.6659436217918744 -3.3317066241013302 0.20000000000000004 -3.7401091150685075 -3.0460241799943417
          -0.2 -3.7401091150685075 -3.0460241799943404 4.8132368722618543e-17 -4.100043960902363 -3.0919476335925618
          3.429049453806187e-17 -3.7366291560152853 -3.0474644480425157 0.20000000000000004 -3.7516983120529694 -4.050018626597609
          -0.20000000000000004 -3.7516983120529694 -4.050018626597609 0.19999999999999998 -3.442849630955126 -3.8717047574269086
          -0.19999999999999996 -3.4428496309551253 -3.871704757426906 2.6357427406076916e-17 -3.7516983120529677 -4.050018626597609
          0.20000000000000004 -3.92284901115468 -3.7535769200025113 -0.20000000000000004 -3.9228490111546805 -3.7535769200025126
          -5.0836081783443245e-17 -3.445913444029511 -3.872704816762128 0.19999999999999998 -3.5905248638260425 -3.615923751074914
          -0.19999999999999993 -3.5905248638260425 -3.6159237510749147 2.1444078561108355e-17 -3.9228490111546774 -3.7535769200025126
          -6.709014515218569e-17 -3.5952580875684634 -3.6159488001601443 0.20000000000000004 -3.338503973071982 -4.588503973071983
          -0.20000000000000004 -3.3385039730719823 -4.588503973071982 0.19999999999999998 -3.086330080931555 -4.336330080931559
          -0.19999999999999998 -3.0863300809315555 -4.336330080931555 3.1639802939211146e-17 -3.3385039730719805 -4.588503973071981
          0.20000000000000004 -3.580547612951259 -4.346460333192707 -0.20000000000000004 -3.580547612951259 -4.346460333192706
          -2.0178051099009818e-17 -3.0879381337101766 -4.337864782587763 0.19999999999999998 -3.2951743980842103 -4.127485763778903
          -0.19999999999999998 -3.2951743980842085 -4.127485763778897 3.127077625104548e-17 -3.580547612951258 -4.346460333192705
          -3.4582018414700804e-17 -3.296568800490559 -4.129460833364111 0.20000000000000004 -2.800018626597608 -5.001698312052969
          -0.20000000000000004 -2.80001862659761 -5.00169831205297 0.2 -2.6217047574269072 -4.692849630955127
          -0.2 -2.6217047574269086 -4.692849630955127 2.05413636404636e-17 -2.800018626597608 -5.0016983120529686
          0.20000000000000004 -3.096460333192705 -4.830547612951259 -0.20000000000000004 -3.0964603331927063 -4.830547612951259
          2.798965797324727e-17 -2.6226945345904698 -4.696114160115755 0.19999999999999998 -2.8774857637788998 -4.545174398084213
          -0.19999999999999998 -2.8774857637789024 -4.545174398084214 3.200882962737681e-17 -3.0964603331927028 -4.830547612951257
          -5.774083783318832e-18 -2.8793074669297942 -4.546268731811416 0.20000000000000004 -2.172762276797539 -5.261446486028523
          -0.20000000000000004 -2.17276227679754 -5.261446486028523 0.2 -2.0809739655346284 -4.915316989447275
          -0.2 -2.080973965534629 -4.915316989447275 3.8466176295010244e-17 -2.1727622767975396 -5.261446486028522
          0.20000000000000004 -2.5035769200025118 -5.172849011154681 -0.20000000000000004 -2.5035769200025135 -5.172849011154682
          -6.002022380397751e-17 -2.081653267709274 -4.915320785421223 0.2 -2.3659237510749147 -4.840524863826042
          -0.2 -2.3659237510749147 -4.84052486382604 9.073897653550394e-18 -2.5035769200025135 -5.17284901115468
          6.175339972981337e-17 -2.3660816022511457 -4.8459595884200946 0.20000000000000004 -1.8419476335925664 -5.350043960902364
          -0.20000000000000004 -1.841947633592567 -5.350043960902363 0.2 -1.7960241799943422 -4.990109115068508
          -0.2 -1.7960241799943428 -4.990109115068509 6.78584549364701e-17 -1.8419476335925657 -5.350043960902363
          -1.8179384733776838e-16 -1.7972249331674026 -4.98468198242235
          <InformationKey name="L2_NORM_RANGE" location="vtkDataArray" length="2">
            <Value index="0">
              1.1170004231e-07
            </Value>
            <Value index="1">
              5.75032732
            </Value>
          </InformationKey>
        </DataArray>
      </Points>
      <Cells>
        <DataArray type="Int64" Name="connectivity" format="ascii" RangeMin="0" RangeMax="1758">
          0 1 2 3 4 5
          6 7 8 9 10 11
          16 17 18 19 12 13
          14 15 24 22 21 23
          20 25 26 27 28 29
          30 0 1 2 3 31
          32 33 34 8 9 10
          11 35 36 37 38 43
          41 40 42 39 20 44
          45 46 47 48 27 28
          29 30 49 50 51 52
          31 32 33 34 53 54
          55 56 61 59 58 60
          57 39 62 63 64 65
          66 45 46 47 48 67
          68 69 70 49 50 51
          52 71 72 73 74 79
          77 76 78 75 57 80
          81 82 83 84 63 64
          65 66 85 86 87 88
          67 68 69 70 89 90
          91 92 97 95 94 96
          93 75 98 99 100 101
          102 81 82 83 84 103
          104 105 106 85 86 87
          88 107 108 109 110 115
          113 112 114 111 93 116
          117 118 119 120 121 122
          123 124 125 126 127 128
          133 134 135 136 129 130
          131 132 141 139 138 140
          137 142 143 144 145 146
          147 117 118 119 120 148
          149 150 151 125 126 127
          128 152 153 154 155 160
          158 157 159 156 137 161
          162 163 164 165 144 145
          146 147 166 167 168 169
          148 149 150 151 170 171
          172 173 178 176 175 177
          174 156 179 180 181 118
          117 182 183 122 121 184
          185 125 186 189 190 133
          191 187 188 130 129 195
          194 193 138 192 196 197
          198 199 145 144 180 181
          118 117 200 201 148 202
          184 185 125 186 203 204
          153 152 208 207 206 157
          205 192 209 210 211 163
          162 198 199 145 144 212
          213 166 214 200 201 148
          202 215 216 171 170 220
          219 218 175 217 205 221
          222 223 165 164 224 225
          147 146 226 227 168 228
          231 232 150 233 229 230
          173 172 237 236 235 177
          234 238 239 224 225 147
          146 240 241 120 119 231
          232 150 233 244 245 127
          246 242 243 155 154 249
          248 247 159 238 250 251
          240 241 120 119 252 253
          124 123 244 245 127 246
          256 257 135 258 254 255
          132 131 261 260 259 140
          250 262 263 264 117 120
          265 266 121 124 267 268
          128 269 270 273 136 274
          275 271 129 132 272 279
          141 277 278 276 280 281
          282 144 147 283 264 117
          120 265 284 151 285 286
          268 128 269 270 287 152
          155 288 292 160 290 291
          289 276 293 294 162 165
          295 282 144 147 283 296
          169 297 298 284 151 285
          286 299 170 173 300 304
          178 302 303 301 289 305
          306 180 117 264 307 182
          121 266 308 186 268 309
          311 191 273 312 310 187
          129 271 315 195 314 277
          313 316 317 318 198 144
          282 306 180 117 264 319
          202 284 320 308 186 268
          309 321 203 152 287 324
          208 323 290 322 313 325
          326 210 162 294 318 198
          144 282 327 214 296 328
          319 202 284 320 329 215
          170 299 332 220 331 302
          330 322 333 223 334 295
          165 225 335 283 147 336
          337 297 227 339 340 285
          232 230 338 300 173 236
          343 342 303 341 344 345
          225 335 283 147 241 346
          265 120 339 340 285 232
          348 349 269 245 243 347
          288 155 248 351 350 291
          344 352 353 241 346 265
          120 253 354 267 124 348
          349 269 245 356 357 274
          257 255 355 272 132 260
          359 358 278 352 360 361
          362 363 364 365 366 367
          368 369 370 371 372 373
          378 379 380 381 374 375
          376 377 386 384 383 385
          382 387 388 363 389 390
          364 367 391 392 368 393
          394 395 371 398 399 400
          379 375 396 397 376 384
          403 402 404 401 405 406
          389 407 408 390 391 409
          410 392 411 412 413 394
          416 417 418 399 396 414
          415 397 403 421 420 422
          419 423 424 425 426 363
          362 427 428 367 366 429
          430 370 431 434 435 378
          436 432 433 375 374 440
          439 438 383 437 441 442
          426 443 389 363 428 444
          391 367 445 446 393 430
          448 449 398 435 433 447
          396 375 439 452 451 402
          450 453 454 443 455 407
          389 444 456 409 391 457
          458 411 446 460 461 416
          449 447 459 414 396 452
          464 463 420 462 465 466
          467 468 390 408 469 470
          392 410 471 472 413 473
          476 477 418 478 474 475
          397 415 482 481 480 422
          479 483 484 468 485 364
          390 470 486 368 392 487
          488 395 472 490 491 400
          477 475 489 376 397 481
          494 493 404 492 495 496
          485 497 365 364 486 498
          369 368 499 500 372 488
          502 503 380 491 489 501
          377 376 494 506 505 385
          504 507 508 389 509 510
          390 407 511 512 408 513
          514 515 394 518 519 520
          412 411 516 517 413 419
          523 522 524 521 525 526
          363 527 528 364 389 509
          510 390 529 530 531 371
          513 514 515 394 393 532
          533 395 401 536 535 537
          534 521 538 362 539 540
          365 363 527 528 364 541
          542 543 373 529 530 531
          371 370 544 545 372 382
          548 547 549 546 534 550
          443 551 509 389 455 552
          511 407 553 554 513 446
          556 557 518 458 457 555
          516 411 462 560 559 522
          558 561 562 426 563 527
          363 443 551 509 389 564
          565 529 430 553 554 513
          446 445 566 532 393 450
          569 568 535 567 558 570
          425 571 539 362 426 563
          527 363 572 573 541 431
          564 565 529 430 429 574
          544 370 437 577 576 547
          575 567 578 579 497 365
          540 580 485 364 528 581
          500 543 582 584 488 531
          585 583 499 372 545 588
          504 587 549 586 589 590
          580 485 364 528 591 468
          390 510 584 488 531 585
          593 472 515 594 592 487
          395 533 596 492 595 537
          589 597 598 591 468 390
          510 599 467 408 512 593
          472 515 594 601 473 520
          602 600 471 413 517 604
          479 603 524 597 605 606
          3 607 608 0 7 609
          610 4 611 612 613 11
          616 617 618 19 15 614
          615 12 24 621 620 622
          619 623 624 30 625 626
          27 3 607 608 0 627
          628 629 34 611 612 613
          11 38 630 631 35 43
          634 633 635 632 619 636
          48 637 638 45 30 625
          626 27 639 640 641 52
          627 628 629 34 56 642
          643 53 61 646 645 647
          644 632 648 66 649 650
          63 48 637 638 45 651
          652 653 70 639 640 641
          52 74 654 655 71 79
          658 657 659 656 644 660
          84 661 662 81 66 649
          650 63 663 664 665 88
          651 652 653 70 92 666
          667 89 97 670 669 671
          668 656 672 102 673 674
          99 84 661 662 81 675
          676 677 106 663 664 665
          88 110 678 679 107 115
          682 681 683 680 668 684
          0 608 685 686 4 610
          687 688 613 689 690 691
          618 694 695 696 12 615
          692 693 700 698 622 699
          697 701 702 27 626 703
          704 0 608 685 686 629
          705 706 707 613 689 690
          691 35 631 708 709 713
          711 635 712 710 697 714
          45 638 715 716 27 626
          703 704 641 717 718 719
          629 705 706 707 53 643
          720 721 725 723 647 724
          722 710 726 63 650 727
          728 45 638 715 716 653
          729 730 731 641 717 718
          719 71 655 732 733 737
          735 659 736 734 722 738
          81 662 739 740 63 650
          727 728 665 741 742 743
          653 729 730 731 89 667
          744 745 749 747 671 748
          746 734 750 99 674 751
          752 81 662 739 740 677
          753 754 755 665 741 742
          743 107 679 756 757 761
          759 683 760 758 746 762
          763 764 673 102 765 766
          661 84 767 768 675 769
          772 773 663 774 770 771
          678 110 778 777 776 681
          775 779 780 765 766 661
          84 781 782 649 66 772
          773 663 774 785 786 651
          787 783 784 666 92 790
          789 788 669 779 791 792
          781 782 649 66 793 794
          637 48 785 786 651 787
          797 798 639 799 795 796
          654 74 802 801 800 657
          791 803 804 793 794 637
          48 805 806 625 30 797
          798 639 799 809 810 627
          811 807 808 642 56 814
          813 812 645 803 815 816
          805 806 625 30 817 818
          607 3 809 810 627 811
          821 822 611 823 819 820
          630 38 826 825 824 633
          815 827 828 817 818 607
          3 829 830 609 7 821
          822 611 823 833 834 616
          835 831 832 614 15 838
          837 836 620 827 839 840
          841 842 843 844 366 362
          365 369 845 846 847 848
          374 373 377 381 849 850
          851 852 857 855 854 856
          853 386 858 859 860 861
          862 841 842 843 844 863
          864 865 866 845 846 847
          848 867 868 869 870 875
          873 872 874 871 853 876
          877 878 879 880 859 860
          861 862 881 882 883 884
          863 864 865 866 885 886
          887 888 893 891 890 892
          889 871 894 895 896 897
          898 877 878 879 880 899
          900 901 902 881 882 883
          884 903 904 905 906 911
          909 908 910 907 889 912
          913 914 915 916 895 896
          897 898 917 918 919 920
          899 900 901 902 921 922
          923 924 929 927 926 928
          925 907 930 931 932 933
          934 913 914 915 916 935
          936 937 938 917 918 919
          920 939 940 941 942 947
          945 944 946 943 925 948
          949 950 951 952 121 266
          267 124 953 954 955 956
          273 275 274 136 957 958
          959 960 965 963 962 964
          961 280 966 967 968 969
          970 949 950 951 952 971
          972 973 974 953 954 955
          956 975 976 977 978 983
          981 980 982 979 961 984
          985 986 987 988 967 968
          969 970 989 990 991 992
          971 972 973 974 993 994
          995 996 1001 999 998 1000
          997 979 1002 1003 1004 1005
          1006 985 986 987 988 1007
          1008 1009 1010 989 990 991
          992 1011 1012 1013 1014 1019
          1017 1016 1018 1015 997 1020
          1021 1022 1023 1024 1003 1004
          1005 1006 1025 1026 1027 1028
          1007 1008 1009 1010 1029 1030
          1031 1032 1037 1035 1034 1036
          1033 1015 1038 4 5 6
          7 1021 1022 1023 1024 16
          17 18 19 1025 1026 1027
          1028 1039 1040 1041 1042 1046
          1044 1043 1045 25 1033 1047
          949 1048 1049 1050 121 122
          183 182 1051 1052 1053 1054
          133 190 189 191 957 1055
          1056 1057 1062 1060 1059 1061
          1058 196 1063 967 1064 1065
          1066 949 1048 1049 1050 1067
          1068 1069 1070 1051 1052 1053
          1054 975 1071 1072 1073 1078
          1076 1075 1077 1074 1058 1079
          985 1080 1081 1082 967 1064
          1065 1066 1083 1084 1085 1086
          1067 1068 1069 1070 993 1087
          1088 1089 1094 1092 1091 1093
          1090 1074 1095 1003 1096 1097
          1098 985 1080 1081 1082 1099
          1100 1101 1102 1083 1084 1085
          1086 1011 1103 1104 1105 1110
          1108 1107 1109 1106 1090 1111
          1021 1112 1113 1114 1003 1096
          1097 1098 1115 1116 1117 1118
          1099 1100 1101 1102 1029 1119
          1120 1121 1126 1124 1123 1125
          1122 1106 1127 4 610 687
          688 1021 1112 1113 1114 618
          694 695 696 1115 1116 1117
          1118 1039 1128 1129 1130 1134
          1132 1131 1133 701 1122 1135
          952 1136 1048 949 124 123
          122 121 1137 1138 1051 956
          135 134 133 136 960 1139
          1055 957 965 1142 1141 1059
          1140 142 1143 970 1144 1064
          967 952 1136 1048 949 1145
          1146 1067 974 1137 1138 1051
          956 978 1147 1071 975 983
          1150 1149 1075 1148 1140 1151
          988 1152 1080 985 970 1144
          1064 967 1153 1154 1083 992
          1145 1146 1067 974 996 1155
          1087 993 1001 1158 1157 1091
          1156 1148 1159 1006 1160 1096
          1003 988 1152 1080 985 1161
          1162 1099 1010 1153 1154 1083
          992 1014 1163 1103 1011 1019
          1166 1165 1107 1164 1156 1167
          1024 1168 1112 1021 1006 1160
          1096 1003 1169 1170 1115 1028
          1161 1162 1099 1010 1032 1171
          1119 1029 1037 1174 1173 1123
          1172 1164 1175 7 609 610
          4 1024 1168 1112 1021 616
          617 618 19 1169 1170 1115
          1028 1042 1176 1128 1039 1046
          1178 1177 1131 623 1172 1179
          829 830 609 7 1180 1181
          1168 1024 833 834 616 835
          1184 1185 1169 1186 1182 1183
          1176 1042 1189 1188 1187 1177
          839 1190 1191 1180 1181 1168
          1024 1192 1193 1160 1006 1184
          1185 1169 1186 1196 1197 1161
          1198 1194 1195 1171 1032 1201
          1200 1199 1173 1190 1202 1203
          1192 1193 1160 1006 1204 1205
          1152 988 1196 1197 1161 1198
          1208 1209 1153 1210 1206 1207
          1163 1014 1213 1212 1211 1165
          1202 1214 1215 1204 1205 1152
          988 1216 1217 1144 970 1208
          1209 1153 1210 1220 1221 1145
          1222 1218 1219 1155 996 1225
          1224 1223 1157 1214 1226 1227
          1216 1217 1144 970 1228 1229
          1136 952 1220 1221 1145 1222
          1232 1233 1137 1234 1230 1231
          1147 978 1237 1236 1235 1149
          1226 1238 1239 1228 1229 1136
          952 253 252 123 124 1232
          1233 1137 1234 256 258 135
          257 1240 1241 1139 960 1244
          1243 1242 1141 1238 262 1245
          1246 842 1247 1248 539 362
          425 571 1249 1250 1251 1252
          541 431 572 573 1253 850
          1254 1255 1260 1258 1257 1259
          1256 575 1261 1262 860 1263
          1264 1246 842 1247 1248 1265
          1266 1267 1268 1249 1250 1251
          1252 1269 868 1270 1271 1276
          1274 1273 1275 1272 1256 1277
          1278 878 1279 1280 1262 860
          1263 1264 1281 1282 1283 1284
          1265 1266 1267 1268 1285 886
          1286 1287 1292 1290 1289 1291
          1288 1272 1293 1294 896 1295
          1296 1278 878 1279 1280 1297
          1298 1299 1300 1281 1282 1283
          1284 1301 904 1302 1303 1308
          1306 1305 1307 1304 1288 1309
          1310 914 1311 1312 1294 896
          1295 1296 1313 1314 1315 1316
          1297 1298 1299 1300 1317 922
          1318 1319 1324 1322 1321 1323
          1320 1304 1325 1326 932 1327
          1328 1310 914 1311 1312 1329
          1330 1331 1332 1313 1314 1315
          1316 1333 940 1334 1335 1340
          1338 1337 1339 1336 1320 1341
          1342 843 842 1246 540 365
          362 539 1343 846 1249 1344
          543 373 541 542 1345 851
          850 1253 1348 855 1347 1257
          1346 546 1349 1350 861 860
          1262 1342 843 842 1246 1351
          864 1265 1352 1343 846 1249
          1344 1353 869 868 1269 1356
          873 1355 1273 1354 1346 1357
          1358 879 878 1278 1350 861
          860 1262 1359 882 1281 1360
          1351 864 1265 1352 1361 887
          886 1285 1364 891 1363 1289
          1362 1354 1365 1366 897 896
          1294 1358 879 878 1278 1367
          900 1297 1368 1359 882 1281
          1360 1369 905 904 1301 1372
          909 1371 1305 1370 1362 1373
          1374 915 914 1310 1366 897
          896 1294 1375 918 1313 1376
          1367 900 1297 1368 1377 923
          922 1317 1380 927 1379 1321
          1378 1370 1381 1382 933 932
          1326 1374 915 914 1310 1383
          936 1329 1384 1375 918 1313
          1376 1385 941 940 1333 1388
          945 1387 1337 1386 1378 1389
          1390 1391 933 1382 1392 1393
          915 1374 1394 1395 1383 1396
          1399 1400 1375 1401 1397 1398
          941 1385 1405 1404 1403 1387
          1402 1406 1407 1392 1393 915
          1374 1408 1409 897 1366 1399
          1400 1375 1401 1412 1413 1367
          1414 1410 1411 923 1377 1417
          1416 1415 1379 1406 1418 1419
          1408 1409 897 1366 1420 1421
          879 1358 1412 1413 1367 1414
          1424 1425 1359 1426 1422 1423
          905 1369 1429 1428 1427 1371
          1418 1430 1431 1420 1421 879
          1358 1432 1433 861 1350 1424
          1425 1359 1426 1436 1437 1351
          1438 1434 1435 887 1361 1441
          1440 1439 1363 1430 1442 1443
          1432 1433 861 1350 1444 1445
          843 1342 1436 1437 1351 1438
          1448 1449 1343 1450 1446 1447
          869 1353 1453 1452 1451 1355
          1442 1454 1455 1444 1445 843
          1342 579 497 365 540 1448
          1449 1343 1450 581 500 543
          582 1456 1457 851 1345 1460
          1459 1458 1347 1454 586 1461
          1462 1463 1464 1465 1326 932
          1327 1328 1466 1467 1468 1469
          1329 1330 1331 1332 1470 1471
          1472 1473 1478 1476 1475 1477
          1474 1336 1479 1480 1481 1482
          1483 1462 1463 1464 1465 1484
          1485 1486 1487 1466 1467 1468
          1469 1488 1489 1490 1491 1496
          1494 1493 1495 1492 1474 1497
          1498 1499 1500 1501 1480 1481
          1482 1483 1502 1503 1504 1505
          1484 1485 1486 1487 1506 1507
          1508 1509 1514 1512 1511 1513
          1510 1492 1515 1516 1517 1518
          1519 1498 1499 1500 1501 1520
          1521 1522 1523 1502 1503 1504
          1505 1524 1525 1526 1527 1532
          1530 1529 1531 1528 1510 1533
          1534 1535 1536 1537 1516 1517
          1518 1519 1538 1539 1540 1541
          1520 1521 1522 1523 1542 1543
          1544 1545 1550 1548 1547 1549
          1546 1528 1551 674 99 752
          751 1534 1535 1536 1537 677
          755 754 753 1538 1539 1540
          1541 1552 1553 1554 1555 1559
          1557 1556 1558 758 1546 1560
          1561 1562 1463 1462 1382 933
          932 1326 1563 1564 1466 1565
          1383 936 1329 1384 1566 1567
          1471 1470 1571 1570 1569 1475
          1568 1386 1572 1573 1574 1481
          1480 1561 1562 1463 1462 1575
          1576 1484 1577 1563 1564 1466
          1565 1578 1579 1489 1488 1583
          1582 1581 1493 1580 1568 1584
          1585 1586 1499 1498 1573 1574
          1481 1480 1587 1588 1502 1589
          1575 1576 1484 1577 1590 1591
          1507 1506 1595 1594 1593 1511
          1592 1580 1596 1597 1598 1517
          1516 1585 1586 1499 1498 1599
          1600 1520 1601 1587 1588 1502
          1589 1602 1603 1525 1524 1607
          1606 1605 1529 1604 1592 1608
          1609 1610 1535 1534 1597 1598
          1517 1516 1611 1612 1538 1613
          1599 1600 1520 1601 1614 1615
          1543 1542 1619 1618 1617 1547
          1616 1604 1620 673 102 99
          674 1609 1610 1535 1534 675
          106 677 676 1611 1612 1538
          1613 1621 1622 1553 1552 1625
          1624 1623 1556 680 1616 1626
          764 763 102 673 1627 1628
          1610 1609 767 769 675 768
          1631 1632 1611 1633 1629 1630
          1622 1621 1636 1635 1634 1623
          775 1637 1638 1627 1628 1610
          1609 1639 1640 1598 1597 1631
          1632 1611 1633 1643 1644 1599
          1645 1641 1642 1615 1614 1648
          1647 1646 1617 1637 1649 1650
          1639 1640 1598 1597 1651 1652
          1586 1585 1643 1644 1599 1645
          1655 1656 1587 1657 1653 1654
          1603 1602 1660 1659 1658 1605
          1649 1661 1662 1651 1652 1586
          1585 1663 1664 1574 1573 1655
          1656 1587 1657 1667 1668 1575
          1669 1665 1666 1591 1590 1672
          1671 1670 1593 1661 1673 1674
          1663 1664 1574 1573 1675 1676
          1562 1561 1667 1668 1575 1669
          1679 1680 1563 1681 1677 1678
          1579 1578 1684 1683 1682 1581
          1673 1685 1686 1675 1676 1562
          1561 1390 1391 933 1382 1679
          1680 1563 1681 1394 1395 1383
          1396 1687 1688 1567 1566 1691
          1690 1689 1569 1685 1402 1692
          1693 1463 1562 1694 931 932
          933 934 1695 1564 1696 1697
          935 936 937 938 1698 1471
          1567 1699 1703 1570 1701 1702
          1700 943 1704 1705 1481 1574
          1706 1693 1463 1562 1694 1707
          1576 1708 1709 1695 1564 1696
          1697 1710 1489 1579 1711 1715
          1582 1713 1714 1712 1700 1716
          1717 1499 1586 1718 1705 1481
          1574 1706 1719 1588 1720 1721
          1707 1576 1708 1709 1722 1507
          1591 1723 1727 1594 1725 1726
          1724 1712 1728 1729 1517 1598
          1730 1717 1499 1586 1718 1731
          1600 1732 1733 1719 1588 1720
          1721 1734 1525 1603 1735 1739
          1606 1737 1738 1736 1724 1740
          1741 1535 1610 1742 1729 1517
          1598 1730 1743 1612 1744 1745
          1731 1600 1732 1733 1746 1543
          1615 1747 1751 1618 1749 1750
          1748 1736 1752 100 99 102
          101 1741 1535 1610 1742 103
          106 105 104 1743 1612 1744
          1745 1753 1553 1622 1754 1757
          1624 1755 1756 111 1748 1758
        </DataArray>
        <DataArray type="Int64" Name="offsets" format="ascii" RangeMin="27" RangeMax="3564">
          27 54 81 108 135 162
          189 216 243 270 297 324
          351 378 405 432 459 486
          513 540 567 594 621 648
          675 702 729 756 783 810
          837 864 891 918 945 972
          999 1026 1053 1080 1107 1134
          1161 1188 1215 1242 1269 1296
          1323 1350 1377 1404 1431 1458
          1485 1512 1539 1566 1593 1620
          1647 1674 1701 1728 1755 1782
          1809 1836 1863 1890 1917 1944
          1971 1998 2025 2052 2079 2106
          2133 2160 2187 2214 2241 2268
          2295 2322 2349 2376 2403 2430
          2457 2484 2511 2538 2565 2592
          2619 2646 2673 2700 2727 2754
          2781 2808 2835 2862 2889 2916
          2943 2970 2997 3024 3051 3078
          3105 3132 3159 3186 3213 3240
          3267 3294 3321 3348 3375 3402
          3429 3456 3483 3510 3537 3564
        </DataArray>
        <DataArray type="UInt8" Name="types" format="ascii" RangeMin="79" RangeMax="79">
          79 79 79 79 79 79
          79 79 79 79 79 79
          79 79 79 79 79 79
          79 79 79 79 79 79
          79 79 79 79 79 79
          79 79 79 79 79 79
          79 79 79 79 79 79
          79 79 79 79 79 79
          79 79 79 79 79 79
          79 79 79 79 79 79
          79 79 79 79 79 79
          79 79 79 79 79 79
          79 79 79 79 79 79
          79 79 79 79 79 79
          79 79 79 79 79 79
          79 79 79 79 79 79
          79 79 79 79 79 79
          79 79 79 79 79 79
          79 79 79 79 79 79
          79 79 79 79 79 79
          79 79 79 79 79 79
          79 79 79 79 79 79
        </DataArray>
      </Cells>
    </Piece>
  </UnstructuredGrid>
</VTKFile>
