time,stress_zz,total_twin_volume_fraction,twin_resistance_0,twin_resistance_1,twin_resistance_2,twin_resistance_3,twin_volume_fraction_0,twin_volume_fraction_1,twin_volume_fraction_2,twin_volume_fraction_3
0,0,0,0,0,0,0,0,0,0,0
0.05,-3.2382392652154,4.573293544311e-18,6,6,6,6,0,4.573293544311e-18,0,0
0.1,-6.4757607670763,4.793053211423e-12,6,6,6,6,0,4.793053211423e-12,0,0
0.15,-9.7122207573342,1.592071522217e-08,6.0000001433838,6.0000001433838,6,6,0,1.592071522217e-08,0,0
0.2,-12.86002101971,4.1094608902667e-06,6.0095592579436,6.0095592579436,6,6,0,4.1094608902667e-06,0,0
